!RI BP86 def2-SVP def2/J D3BJ TIGHTSCF TightOpt Grid5 FinalGrid6 freq
%maxcore 950
%pal nprocs 16
end
* xyz 0 1 
O -1.57503 2.80434 -2.4807 
C -1.40814 2.47223 -1.30864 
C -0.92201 3.43669 -0.19777 
C -0.8743 4.89087 -0.6634 
C 0.52391 5.02024 -1.25942 
C 1.37932 4.15937 -0.3417 
N 0.47144 3.14561 0.18047 
C 0.80249 2.10764 1.02307 
O -0.06453 1.31323 1.417 
N -1.57516 1.17651 -0.87185 
C -2.00867 0.02975 -1.6805 
C -1.03333 -0.2878 -2.84847 
N 0.25323 0.15745 -2.63122 
C 1.39746 -0.21171 -3.45942 
C 2.11735 -1.31329 -2.66127 
N 1.55006 -2.56081 -2.78024 
C 1.9378 -3.72681 -1.99391 
C 0.82882 -4.14374 -1.00524 
C 0.54208 -3.09963 0.09152 
C 1.72349 -2.99542 1.0422 
N 2.62251 -2.01111 0.72952 
C 3.76362 -1.60157 1.55733 
C 3.79058 -0.0492 1.56777 
N 2.53637 0.52027 1.5614 
C 2.27127 1.95346 1.47171 
C 2.46479 2.64455 2.8144 
O 4.81268 0.62536 1.68855 
C 5.08618 -2.15988 1.01252 
C 5.22376 -3.69404 1.07248 
C 5.30038 -4.20939 2.51056 
C 6.47557 -4.13097 0.30589 
O 1.85528 -3.71597 2.03066 
C -0.72818 -3.4289 0.87388 
C -1.13804 -2.43666 1.95865 
C -2.58441 -2.63681 2.41001 
C -2.94958 -1.83841 3.66364 
C -2.81105 -0.31815 3.55702 
C -3.68895 0.29945 2.46709 
C -3.70163 1.82642 2.57139 
C -4.51878 2.45882 1.44446 
C -4.57321 3.98031 1.57857 
C -5.31269 4.61368 0.41103 
O -1.40793 -4.43362 0.62549 
O -0.34926 -4.39603 -1.81104 
O 3.02615 -1.08342 -1.86104 
C 2.3174 0.98889 -3.69232 
C 1.67677 2.04578 -4.58067 
O -1.31478 -1.00173 -3.81065 
C -3.51895 0.02238 -2.00802 
C -3.93338 0.9304 -3.16535 
C -4.02571 -1.404 -2.2627 
H -1.57625 3.31746 0.67079 
H -0.96094 5.55898 0.20253 
H -1.65983 5.15713 -1.37639 
H 0.53773 4.61213 -2.27693 
H 0.87227 6.05573 -1.30656 
H 2.21324 3.69335 -0.87375 
H 1.76883 4.73699 0.50278 
H -1.36459 0.99734 0.1127 
H -1.84238 -0.80933 -0.98844 
H 0.42993 0.6523 -1.76049 
H 1.05727 -0.62677 -4.4148 
H 0.73419 -2.66546 -3.38307 
H 2.89222 -3.55276 -1.49094 
H 2.08561 -4.53023 -2.72451 
H 1.11436 -5.10028 -0.54988 
H 0.34468 -2.12562 -0.37236 
H 2.53439 -1.52059 -0.1627 
H 3.59145 -1.92204 2.59 
H 1.73412 -0.10754 1.55 
H 2.9601 2.36644 0.73094 
H 3.49646 2.54503 3.16656 
H 2.23049 3.71168 2.7451 
H 1.81087 2.21177 3.58025 
H 5.92493 -1.71024 1.56046 
H 5.199 -1.83317 -0.03041 
H 4.36118 -4.15887 0.58184 
H 4.38507 -3.99101 3.06699 
H 5.43765 -5.29609 2.525 
H 6.14001 -3.75736 3.0495 
H 6.4217 -3.81205 -0.74047 
H 7.38219 -3.70153 0.74574 
H 6.57734 -5.2214 0.31576 
H -1.01333 -1.42573 1.55741 
H -0.46005 -2.56322 2.80861 
H -2.7559 -3.69739 2.6341 
H -3.26556 -2.38981 1.58693 
H -2.32474 -2.18408 4.49682 
H -3.98428 -2.08037 3.93738 
H -1.76298 -0.0457 3.38778 
H -3.08739 0.11139 4.52832 
H -4.71451 -0.07819 2.55736 
H -3.31833 0.00212 1.47986 
H -2.67389 2.20629 2.53944 
H -4.12301 2.12212 3.53997 
H -5.53801 2.05393 1.45353 
H -4.07553 2.19289 0.47879 
H -3.55863 4.39158 1.62442 
H -5.0743 4.25241 2.51476 
H -5.3456 5.70133 0.52833 
H -4.81272 4.38951 -0.53691 
H -6.34218 4.24631 0.35257 
H -1.02291 -4.74335 -1.18231 
H 3.24828 0.64963 -4.16301 
H 2.59795 1.45089 -2.73708 
H 2.37874 2.86745 -4.75454 
H 1.39927 1.62531 -5.55243 
H 0.77873 2.46502 -4.11734 
H -4.05296 0.37669 -1.11627 
H -3.82006 1.98435 -2.90187 
H -3.35513 0.73298 -4.07246 
H -4.99173 0.78506 -3.41005 
H -3.75493 -2.07023 -1.43659 
H -5.11823 -1.41327 -2.34529 
H -3.62246 -1.82451 -3.18825 
*