!RI BP86 def2-SVP def2/J D3BJ TIGHTSCF TightOpt Grid5 FinalGrid6 freq
%maxcore 950
%pal nprocs 16
end
* xyz 0 1 
O -3.19213 2.12597 -1.351 
C -1.98673 2.36792 -1.25709 
C -1.40244 3.18141 -0.0857 
C -1.55071 4.68245 -0.34399 
C -0.19551 5.08696 -0.91638 
C 0.78126 4.21906 -0.1393 
N 0.03843 2.99778 0.14249 
C 0.52167 1.84495 0.72086 
O -0.19633 0.83867 0.80915 
N -1.10157 2.05567 -2.2609 
C -1.49593 1.34845 -3.48733 
C -0.32915 0.46215 -3.99396 
N 0.57215 0.105 -3.01269 
C 1.75903 -0.70797 -3.2768 
C 1.53664 -2.20148 -2.94224 
N 0.42674 -2.47919 -2.17275 
C 0.10216 -3.81594 -1.69923 
C 0.96835 -4.2554 -0.50145 
C 0.60799 -3.47279 0.78401 
C 1.89389 -3.17023 1.52785 
N 2.6161 -2.1493 0.94786 
C 3.82412 -1.53803 1.51401 
C 3.68142 0.00671 1.42422 
N 2.37767 0.44486 1.39094 
C 1.96173 1.84208 1.28369 
C 1.99105 2.50035 2.658 
O 4.63086 0.78822 1.47461 
C 5.08316 -1.99244 0.76078 
C 5.40345 -3.49637 0.86884 
C 6.54204 -3.85231 -0.09166 
C 5.79066 -3.90149 2.2919 
O 2.26605 -3.7468 2.54569 
C -0.49407 -4.13209 1.59554 
C -0.70234 -3.75872 3.05412 
C -0.86295 -2.26777 3.33021 
C -2.10926 -1.67016 2.67317 
C -2.37662 -0.25669 3.19565 
C -3.52398 0.41361 2.44007 
C -3.80625 1.81183 2.99238 
C -4.89372 2.52061 2.18412 
C -5.13627 3.9376 2.70228 
C -6.20644 4.65072 1.89149 
O -1.27016 -4.94684 1.06811 
O 0.88243 -5.68237 -0.3292 
O 2.34923 -3.0751 -3.2526 
C 2.95619 -0.18071 -2.47805 
C 3.3785 1.21871 -2.90372 
O -0.25081 0.01134 -5.13626 
C -2.03991 2.3486 -4.53391 
C -0.94799 3.2399 -5.13276 
C -2.83736 1.65795 -5.6429 
H -1.9423 2.87609 0.81618 
H -1.71235 5.20522 0.60688 
H -2.3757 4.93696 -1.01624 
H -0.15264 4.84381 -1.98416 
H 0.0114 6.15481 -0.80389 
H 1.6926 3.9972 -0.7009 
H 1.04933 4.69012 0.81051 
H -0.14145 2.37863 -2.16905 
H -2.29816 0.65338 -3.20659 
H 0.36809 0.38202 -2.05488 
H 1.98296 -0.66441 -4.34958 
H -0.2198 -1.71656 -1.98506 
H 0.23984 -4.51708 -2.53095 
H -0.96253 -3.83185 -1.44342 
H 2.01615 -4.07726 -0.76917 
H 0.19729 -2.49169 0.50518 
H 2.28632 -1.7634 0.06708 
H 3.88594 -1.78487 2.57883 
H 1.6372 -0.25287 1.4409 
H 2.64357 2.34793 0.59412 
H 2.9989 2.47419 3.08542 
H 1.67063 3.54442 2.61738 
H 1.32329 1.98134 3.35578 
H 5.94973 -1.42034 1.11794 
H 4.96649 -1.72999 -0.29983 
H 4.52614 -4.08006 0.5669 
H 6.2687 -3.61206 -1.12466 
H 7.4571 -3.30267 0.15416 
H 6.76751 -4.92319 -0.04831 
H 4.96894 -3.74125 2.99483 
H 6.05133 -4.96463 2.33385 
H 6.65502 -3.32922 2.6457 
H 0.12796 -4.16592 3.63861 
H -1.59842 -4.28582 3.40624 
H 0.02192 -1.71243 3.00079 
H -0.92944 -2.13257 4.41703 
H -2.98227 -2.30088 2.87981 
H -1.97643 -1.64675 1.58524 
H -1.47046 0.35291 3.10185 
H -2.61809 -0.3047 4.26466 
H -4.42883 -0.20118 2.51701 
H -3.26822 0.48151 1.37569 
H -2.88628 2.40817 2.97417 
H -4.11751 1.73632 4.0414 
H -5.82487 1.94339 2.23565 
H -4.59958 2.56405 1.12884 
H -4.20591 4.51565 2.65479 
H -5.44379 3.90237 3.75382 
H -6.3649 5.66186 2.27923 
H -5.91231 4.73232 0.84015 
H -7.1593 4.11422 1.9415 
H -0.05576 -5.86735 -0.09387 
H 3.81173 -0.85658 -2.59603 
H 2.7141 -0.16399 -1.41119 
H 4.25891 1.53436 -2.33484 
H 3.63401 1.24438 -3.96767 
H 2.58412 1.94925 -2.72097 
H -2.74567 3.01619 -4.02025 
H -0.39184 3.76523 -4.35005 
H -0.23387 2.66522 -5.7307 
H -1.39071 3.99844 -5.78759 
H -3.61636 1.01472 -5.22062 
H -3.33156 2.40263 -6.2767 
H -2.20326 1.0475 -6.29153 
*