!RI BP86 def2-SVP def2/J D3BJ TIGHTSCF TightOpt Grid5 FinalGrid6 freq
%maxcore 950
%pal nprocs 16
end
* xyz 0 1 
O -1.45546 2.03078 -3.01832 
C -0.6536 2.20095 -2.09714 
C -1.09218 2.71433 -0.70455 
C -1.62263 4.14458 -0.83716 
C -0.38086 4.99868 -0.60192 
C 0.36077 4.23844 0.48626 
N -0.01023 2.84255 0.28424 
C 0.4506 1.7584 0.99325 
O 0.04495 0.61743 0.72456 
N 0.70156 2.02249 -2.27099 
C 1.30004 2.00114 -3.6047 
C 0.96185 0.74113 -4.43427 
N 0.89314 -0.44923 -3.74137 
C 0.61763 -1.71867 -4.42023 
C 0.24101 -2.81925 -3.40736 
N 1.20008 -3.11866 -2.46531 
C 1.16783 -4.32775 -1.64667 
C 0.19207 -4.2769 -0.44888 
C 0.34594 -3.01553 0.39964 
C 1.7918 -2.81041 0.81507 
N 2.2019 -1.50256 0.75706 
C 3.52858 -1.02947 1.19342 
C 3.33009 0.48529 1.43691 
N 2.22635 0.7451 2.22993 
C 1.48171 1.99591 2.12706 
C 0.77351 2.30214 3.4364 
O 4.0528 1.37683 0.99881 
C 4.6044 -1.34736 0.14522 
C 5.98687 -1.66642 0.75138 
C 6.58282 -0.49696 1.53368 
C 6.95336 -2.08934 -0.35843 
O 2.5388 -3.71617 1.1827 
C -0.53757 -3.1214 1.63125 
C -1.85867 -2.36728 1.58893 
C -2.41245 -2.11526 2.98956 
C -3.65863 -1.22999 2.94923 
C -4.20101 -0.98167 4.35959 
C -5.41064 -0.04162 4.37941 
C -5.07635 1.41437 4.72341 
C -4.1986 2.11761 3.68871 
C -4.01559 3.59674 4.03204 
C -3.18315 4.3113 2.98025 
O -0.22153 -3.81061 2.60888 
O -1.17187 -4.38431 -0.91295 
O -0.81449 -3.45347 -3.47479 
C 1.81806 -2.17335 -5.27458 
C 1.50271 -3.39595 -6.12707 
O 0.89868 0.78205 -5.66664 
C 2.8315 2.22747 -3.57511 
C 3.16843 3.63842 -3.07912 
C 3.59267 1.19073 -2.74446 
H -1.85863 2.02642 -0.32997 
H -2.35608 4.3442 -0.04782 
H -2.09319 4.36041 -1.80092 
H 0.22484 5.0369 -1.5153 
H -0.61881 6.02487 -0.30873 
H 1.44463 4.36433 0.41861 
H 0.02444 4.54422 1.48129 
H 1.29165 2.21517 -1.4669 
H 0.83662 2.83349 -4.1534 
H 0.91032 -0.4093 -2.72455 
H -0.25221 -1.55216 -5.06807 
H 2.04187 -2.54683 -2.44258 
H 2.19373 -4.50282 -1.30839 
H 0.88883 -5.15793 -2.3065 
H 0.3632 -5.17038 0.16387 
H 0.00575 -2.14792 -0.17855 
H 1.5236 -0.79479 0.4655 
H 3.74949 -1.51684 2.15018 
H 1.70586 -0.06541 2.55938 
H 2.17165 2.79814 1.85389 
H 1.49272 2.37368 4.25921 
H 0.22399 3.24583 3.38266 
H 0.05247 1.517 3.69229 
H 4.69986 -0.52641 -0.57486 
H 4.29326 -2.22149 -0.44233 
H 5.87683 -2.51543 1.43826 
H 5.96601 -0.24137 2.40035 
H 7.57926 -0.75172 1.91099 
H 6.68098 0.39355 0.90404 
H 6.56779 -2.9594 -0.90043 
H 7.10729 -1.28035 -1.08075 
H 7.9288 -2.36292 0.05763 
H -2.56941 -2.94802 0.99249 
H -1.6941 -1.40663 1.09082 
H -1.64264 -1.63587 3.60764 
H -2.65252 -3.07197 3.46978 
H -4.43243 -1.71355 2.34047 
H -3.41376 -0.28286 2.45872 
H -3.40909 -0.60123 5.01551 
H -4.51097 -1.94923 4.77515 
H -6.10216 -0.40097 5.15254 
H -5.95888 -0.0895 3.43113 
H -4.58937 1.45414 5.70569 
H -6.02166 1.9628 4.82248 
H -4.65253 2.02316 2.69505 
H -3.21265 1.64156 3.64894 
H -3.52522 3.69287 5.00774 
H -4.99258 4.08777 4.1094 
H -3.03846 5.36009 3.25728 
H -2.19793 3.84718 2.87527 
H -3.68224 4.28347 2.00679 
H -1.19388 -4.01359 -1.82552 
H 2.68592 -2.39141 -4.64056 
H 2.13395 -1.36839 -5.94714 
H 2.36069 -3.64323 -6.76048 
H 1.28271 -4.27157 -5.50897 
H 0.64402 -3.20759 -6.77923 
H 3.20423 2.1513 -4.60567 
H 2.65076 4.39569 -3.67719 
H 2.88524 3.77969 -2.03095 
H 4.24389 3.82922 -3.16193 
H 3.46937 0.1829 -3.15109 
H 4.66639 1.40868 -2.74669 
H 3.25908 1.18204 -1.70315 
*