!RI BP86 def2-SVP def2/J D3BJ TIGHTSCF TightOpt Grid5 FinalGrid6 freq
%maxcore 950
%pal nprocs 16
end
* xyz 0 1 
O 0.97086 1.65863 -2.52649 
C 1.82643 2.17689 -3.24864 
C 3.21229 2.63688 -2.74935 
C 4.28167 1.58768 -3.05164 
C 4.27031 0.70945 -1.80387 
C 4.01673 1.70105 -0.67747 
N 3.24135 2.77055 -1.2921 
C 2.66747 3.85402 -0.65821 
O 2.03915 4.7006 -1.30374 
N 1.63238 2.35048 -4.60254 
C 0.38275 1.96548 -5.25626 
C 0.36613 0.42256 -5.37328 
N -0.83363 -0.15477 -5.02372 
C -1.07796 -1.59773 -4.97481 
C -0.33931 -2.29425 -3.80192 
N 0.00228 -1.46652 -2.75121 
C 0.58941 -1.97532 -1.53026 
C 0.66744 -0.95911 -0.37671 
C -0.68744 -0.34136 0.00374 
C -0.5846 0.7781 1.02747 
N 0.3294 0.61102 2.03548 
C 0.59936 1.59373 3.08915 
C 1.82319 2.45497 2.68686 
N 1.73397 3.02212 1.43486 
C 2.76137 3.90035 0.88157 
C 2.57142 5.32677 1.39019 
O 2.76019 2.70963 3.44521 
C 0.83634 0.90875 4.44368 
C -0.35275 0.08402 4.97487 
C -1.61095 0.9308 5.1687 
C 0.02923 -0.58594 6.29742 
O -1.30751 1.7759 0.97512 
C -1.72875 -1.38444 0.36226 
C -1.80541 -1.86907 1.80152 
C -2.62826 -3.15068 1.93978 
C -2.57977 -3.74617 3.34945 
C -3.29122 -2.88388 4.3938 
C -3.23073 -3.52936 5.77962 
C -3.93562 -2.66556 6.82665 
C -3.85837 -3.30098 8.21558 
C -4.55814 -2.43459 9.26235 
C -4.48286 -3.06186 10.6452 
O -2.48838 -1.83447 -0.50775 
O 1.28677 -1.59079 0.76302 
O -0.18254 -3.51587 -3.73884 
C -0.83699 -2.33309 -6.30093 
C -1.66396 -1.77843 -7.45148 
O 1.35115 -0.23986 -5.70314 
C 0.19345 2.69118 -6.60442 
C -1.25863 2.60807 -7.08181 
C 1.13458 2.20207 -7.7089 
H 3.44652 3.60117 -3.21527 
H 5.26122 2.07242 -3.14463 
H 4.09647 1.01084 -3.96254 
H 3.4474 -0.01159 -1.86709 
H 5.20009 0.15015 -1.66831 
H 3.47702 1.25359 0.16091 
H 4.9537 2.13338 -0.31036 
H 2.40664 2.67368 -5.1752 
H -0.42261 2.27084 -4.57538 
H -1.60333 0.45179 -4.75451 
H -2.14385 -1.68877 -4.725 
H -0.06103 -0.45929 -2.90041 
H 1.60026 -2.32225 -1.77883 
H 0.04337 -2.87366 -1.21757 
H 1.34057 -0.14609 -0.66934 
H -1.07767 0.1627 -0.89297 
H 0.94129 -0.20714 1.98277 
H -0.24649 2.28688 3.15817 
H 0.89599 2.8466 0.88345 
H 3.74624 3.54653 1.20348 
H 2.6844 5.37497 2.47834 
H 3.30812 6.00133 0.94112 
H 1.5737 5.70945 1.14654 
H 1.1 1.67115 5.18911 
H 1.71201 0.25013 4.3609 
H -0.57973 -0.71366 4.25986 
H -1.99786 1.29317 4.21157 
H -2.40845 0.34403 5.6363 
H -1.41168 1.79704 5.80844 
H 0.90773 -1.22712 6.16919 
H 0.26019 0.15736 7.06805 
H -0.78873 -1.21373 6.66641 
H -2.25004 -1.06529 2.39591 
H -0.79155 -2.06074 2.16249 
H -2.24376 -3.90064 1.23669 
H -3.66958 -2.96122 1.65155 
H -1.53553 -3.90487 3.64519 
H -3.05387 -4.73514 3.32221 
H -4.33768 -2.73975 4.09928 
H -2.82992 -1.89278 4.44208 
H -2.18311 -3.67562 6.06983 
H -3.69875 -4.52062 5.74524 
H -4.98596 -2.5279 6.5425 
H -3.47522 -1.67077 6.85349 
H -2.80764 -3.44068 8.49768 
H -4.32146 -4.29496 8.19149 
H -5.61013 -2.29503 8.98753 
H -4.09602 -1.44096 9.29268 
H -4.98943 -2.42593 11.37794 
H -4.96518 -4.04449 10.65707 
H -3.44289 -3.18533 10.96388 
H 2.13749 -1.96004 0.44316 
H -1.09223 -3.39317 -6.17798 
H 0.22376 -2.31019 -6.57395 
H -1.52531 -2.39528 -8.34519 
H -2.73023 -1.77491 -7.20457 
H -1.36198 -0.7585 -7.70358 
H 0.41433 3.75513 -6.44072 
H -1.94269 2.99543 -6.31944 
H -1.40131 3.20527 -7.98891 
H -1.55173 1.57969 -7.31047 
H 2.18112 2.24628 -7.39251 
H 0.90907 1.17334 -8.00823 
H 1.03433 2.83107 -8.60041 
*