!RI BP86 def2-SVP def2/J D3BJ TIGHTSCF TightOpt Grid5 FinalGrid6 freq
%maxcore 950
%pal nprocs 16
end
* xyz 0 1 
O 6.93736 -1.71121 0.51172 
C 6.12577 -1.12734 1.23195 
C 6.27141 0.36617 1.59435 
C 7.36968 0.54536 2.64511 
C 6.60634 0.51578 3.96516 
C 5.31623 1.24871 3.63403 
N 5.08401 0.97076 2.22054 
C 3.98399 1.33672 1.47156 
O 3.88219 0.96385 0.29405 
N 5.09863 -1.78412 1.86523 
C 4.82751 -3.21717 1.72896 
C 3.42203 -3.45698 1.12548 
N 2.99604 -2.46637 0.26577 
C 1.7021 -2.51492 -0.41794 
C 1.71975 -1.70198 -1.73188 
N 2.36666 -0.48758 -1.68922 
C 2.48113 0.40212 -2.83934 
C 1.77024 1.75154 -2.60823 
C 0.2352 1.58808 -2.5773 
C -0.38247 2.3551 -1.42554 
N -0.39958 1.64645 -0.24301 
C -0.79962 2.20858 1.04748 
C 0.41661 2.29011 2.01077 
N 1.64818 2.12417 1.42093 
C 2.91958 2.24732 2.13326 
C 3.37864 3.702 2.08981 
O 0.3015 2.54857 3.21068 
C -1.90975 1.36922 1.69954 
C -3.18249 1.18557 0.84888 
C -4.16579 0.26544 1.57749 
C -3.86573 2.51373 0.52394 
O -0.83202 3.49549 -1.52366 
C -0.39527 1.96766 -3.90861 
C -1.60749 1.16709 -4.36231 
C -2.76728 1.24453 -3.37636 
C -4.01959 0.55533 -3.91753 
C -5.15583 0.60389 -2.89421 
C -6.41375 -0.08764 -3.42026 
C -7.54217 -0.04267 -2.38846 
C -8.80164 -0.73587 -2.91032 
C -9.92848 -0.69114 -1.87861 
C -11.18264 -1.37939 -2.39327 
O 0.0509 2.86982 -4.62853 
O 2.27329 2.36304 -1.40235 
O 1.07382 -2.05262 -2.72344 
C 0.60195 -2.0211 0.53196 
C -0.79942 -2.15853 -0.04599 
O 2.78184 -4.49694 1.28767 
C 5.027 -3.97768 3.05904 
C 6.50051 -3.98536 3.4774 
C 4.16401 -3.42451 4.19807 
H 6.50358 0.90276 0.66711 
H 7.84263 1.52747 2.52186 
H 8.15243 -0.21807 2.60461 
H 6.39023 -0.51997 4.25072 
H 7.15658 0.98527 4.78526 
H 4.47161 0.90798 4.23879 
H 5.43888 2.32751 3.76236 
H 4.4552 -1.22338 2.4181 
H 5.52298 -3.62944 0.98637 
H 3.61469 -1.67072 0.13031 
H 1.51342 -3.56064 -0.69075 
H 2.80408 -0.17558 -0.82121 
H 2.10921 -0.08449 -3.74669 
H 3.55592 0.57507 -2.96516 
H 2.07531 2.41837 -3.4215 
H -0.00859 0.52845 -2.43282 
H 0.02011 0.72259 -0.23118 
H -1.13585 3.24097 0.90264 
H 1.68775 2.03149 0.40301 
H 2.75898 1.93427 3.16888 
H 2.63913 4.35954 2.5594 
H 4.33274 3.84818 2.60201 
H 3.5101 4.0397 1.05502 
H -2.1846 1.82182 2.66174 
H -1.50333 0.37762 1.94151 
H -2.91507 0.6944 -0.09333 
H -3.70784 -0.70711 1.78623 
H -4.48739 0.70079 2.52974 
H -5.05781 0.08834 0.96698 
H -3.23342 3.14583 -0.10544 
H -4.80012 2.34595 -0.02253 
H -4.10414 3.07062 1.43632 
H -1.29169 0.12908 -4.51586 
H -1.92066 1.55805 -5.33776 
H -2.99151 2.29345 -3.14725 
H -2.48032 0.76651 -2.43387 
H -3.78871 -0.48871 -4.16151 
H -4.3375 1.04365 -4.84653 
H -5.38541 1.64821 -2.64985 
H -4.83332 0.1184 -1.96502 
H -6.18349 -1.13101 -3.6678 
H -6.74171 0.40014 -4.3462 
H -7.77259 1.00085 -2.14142 
H -7.21235 -0.52867 -1.46206 
H -8.57116 -1.77931 -3.15764 
H -9.1318 -0.24969 -3.83643 
H -10.16566 0.35007 -1.63092 
H -9.60484 -1.17951 -0.95208 
H -11.97529 -1.33566 -1.63982 
H -11.55125 -0.89427 -3.30273 
H -10.98729 -2.43234 -2.62015 
H 3.19225 2.03717 -1.27191 
H 0.78324 -0.97793 0.81311 
H 0.64203 -2.59592 1.46584 
H -1.54475 -1.88801 0.70822 
H -0.94672 -1.50039 -0.90726 
H -0.99552 -3.18879 -0.35907 
H 4.73209 -5.02399 2.90424 
H 7.12771 -4.40595 2.68439 
H 6.86441 -2.97736 3.70039 
H 6.64338 -4.59781 4.37419 
H 3.10365 -3.41757 3.92718 
H 4.27095 -4.04559 5.09417 
H 4.45328 -2.40375 4.46861 
*