!RI BP86 def2-SVP def2/J D3BJ TIGHTSCF TightOpt Grid5 FinalGrid6 freq
%maxcore 950
%pal nprocs 16
end
* xyz 0 1 
O 2.9961 -2.92087 -1.84482 
C 2.90474 -1.73873 -1.50476 
C 3.35209 -0.56681 -2.42241 
C 4.50617 -0.99181 -3.33062 
C 5.72591 -0.8 -2.43168 
C 5.39267 0.45869 -1.64035 
N 3.93694 0.54908 -1.66176 
C 3.18232 1.58952 -1.17593 
O 1.9709 1.65606 -1.42013 
N 2.30869 -1.37522 -0.31753 
C 1.94466 -2.3394 0.72964 
C 0.40165 -2.53831 0.63775 
N -0.35374 -2.22333 1.74032 
C -1.82138 -2.24753 1.75915 
C -2.39634 -1.04336 2.54637 
N -1.50574 -0.00628 2.713 
C -1.8266 1.26897 3.32451 
C -2.35234 2.31254 2.31603 
C -1.35414 2.82046 1.26664 
C -0.29617 3.71745 1.88338 
N 0.81748 3.09728 2.39045 
C 2.00488 3.80624 2.88507 
C 3.22587 3.51593 1.96888 
N 2.90324 3.03261 0.72436 
C 3.87113 2.65829 -0.30443 
C 4.25573 3.86095 -1.15266 
O 4.38817 3.77225 2.2857 
C 2.32478 3.40026 4.3306 
C 1.23619 3.76509 5.36037 
C 1.04187 5.27646 5.48951 
C 1.59837 3.17409 6.72564 
O -0.44955 4.93886 1.95369 
C -0.79269 1.70589 0.39759 
C -1.40804 1.54694 -0.98521 
C -1.12643 0.17682 -1.59252 
C -1.66147 0.06702 -3.01907 
C -1.35286 -1.30787 -3.61476 
C -1.87426 -1.42482 -5.04738 
C -1.55987 -2.79864 -5.64182 
C -2.0805 -2.91725 -7.07506 
C -1.76565 -4.28998 -7.66892 
C -2.28162 -4.41217 -9.09381 
O 0.13828 0.98413 0.7856 
O -3.53419 1.8257 1.64206 
O -3.57215 -0.95318 2.90178 
C -2.3635 -3.58554 2.27348 
C -1.95914 -3.90675 3.70735 
O -0.13598 -2.9129 -0.41091 
C 2.53696 -1.91651 2.09747 
C 3.98682 -1.41947 1.97919 
C 2.51714 -3.08935 3.08795 
H 2.47674 -0.23724 -2.99209 
H 4.57578 -0.31078 -4.18799 
H 4.42995 -2.01325 -3.71324 
H 5.8285 -1.65412 -1.75155 
H 6.65832 -0.70471 -2.99516 
H 5.75555 0.40337 -0.61018 
H 5.80412 1.35292 -2.11813 
H 2.01821 -0.40644 -0.19474 
H 2.37701 -3.3122 0.4613 
H 0.09855 -1.97522 2.6129 
H -2.17162 -2.11528 0.72858 
H -0.60537 -0.09028 2.23825 
H -0.9306 1.62247 3.83916 
H -2.59608 1.0866 4.08367 
H -2.68751 3.17528 2.9059 
H -1.90343 3.47633 0.57463 
H 0.9025 2.08713 2.26841 
H 1.83726 4.88595 2.8136 
H 1.92011 2.86837 0.51563 
H 4.75113 2.24798 0.19756 
H 4.71957 4.6408 -0.53964 
H 4.96129 3.5814 -1.94094 
H 3.37684 4.30084 -1.63796 
H 3.27282 3.86031 4.6393 
H 2.49286 2.31466 4.36002 
H 0.28195 3.32262 5.05293 
H 0.6621 5.71195 4.56095 
H 0.31481 5.50809 6.27548 
H 1.98236 5.77762 5.74212 
H 1.69968 2.08536 6.6637 
H 2.54389 3.58279 7.09819 
H 0.81978 3.39364 7.46394 
H -1.00107 2.34198 -1.6195 
H -2.49116 1.68849 -0.90666 
H -1.58879 -0.59383 -0.96697 
H -0.05009 -0.02359 -1.59485 
H -1.20885 0.84749 -3.64263 
H -2.74489 0.2367 -3.02115 
H -1.8084 -2.08806 -2.99272 
H -0.26913 -1.47804 -3.60344 
H -1.42032 -0.64318 -5.66861 
H -2.95828 -1.25839 -5.05866 
H -2.01338 -3.58034 -5.02029 
H -0.47571 -2.96454 -5.62991 
H -1.62733 -2.13534 -7.6966 
H -3.16469 -2.75159 -7.08711 
H -2.21992 -5.07519 -7.05348 
H -0.68253 -4.45888 -7.66303 
H -2.04564 -5.40118 -9.49887 
H -3.36772 -4.28035 -9.13042 
H -1.82188 -3.66047 -9.74337 
H -3.91781 1.12582 2.21578 
H -2.00969 -4.39498 1.62319 
H -3.45852 -3.58519 2.21263 
H -2.3922 -4.86533 4.01114 
H -0.87297 -3.9863 3.8084 
H -2.31555 -3.14333 4.40538 
H 1.9537 -1.08704 2.51564 
H 4.04316 -0.48681 1.40885 
H 4.40908 -1.21361 2.96895 
H 4.62335 -2.16299 1.48744 
H 1.51558 -3.50549 3.21892 
H 3.17002 -3.90142 2.74876 
H 2.86997 -2.76658 4.07354 
*