!RI BP86 def2-SVP def2/J D3BJ TIGHTSCF TightOpt Grid5 FinalGrid6 freq
%maxcore 950
%pal nprocs 16
end
* xyz 0 1 
O 6.25891 -2.7795 1.01273 
C 6.00058 -1.66317 0.5633 
C 6.79829 -0.38044 0.91197 
C 7.8972 -0.63623 1.94234 
C 7.17233 -0.45625 3.27142 
C 6.20778 0.68841 2.99474 
N 5.94748 0.63184 1.55995 
C 5.12238 1.47273 0.84407 
O 4.98919 1.33339 -0.38048 
N 4.98832 -1.45967 -0.3509 
C 4.14529 -2.52173 -0.91617 
C 3.21479 -3.10928 0.18656 
N 2.8681 -2.20265 1.16832 
C 1.89891 -2.49413 2.22726 
C 0.4681 -2.10367 1.79277 
N 0.40575 -1.12129 0.82966 
C -0.83265 -0.53144 0.34171 
C -1.5582 0.28344 1.43731 
C -2.25666 1.56664 0.96478 
C -1.28093 2.46007 0.22518 
N -0.26922 2.96467 1.00769 
C 0.86938 3.71281 0.47109 
C 2.0404 3.45346 1.43776 
N 3.15963 2.91211 0.85644 
C 4.38219 2.5984 1.5974 
C 5.26659 3.83618 1.69063 
O 1.96112 3.66512 2.64999 
C 0.54417 5.20977 0.39301 
C 1.67195 6.085 -0.19033 
C 1.26698 7.56017 -0.12278 
C 2.01476 5.71109 -1.63296 
O -1.35478 2.69482 -0.98043 
C -3.55822 1.36589 0.20602 
C -3.60504 0.36265 -0.93468 
C -4.83404 0.5519 -1.82432 
C -4.83707 -0.44254 -2.98609 
C -6.06705 -0.25521 -3.87568 
C -6.0694 -1.24945 -5.03804 
C -7.29921 -1.06203 -5.92803 
C -7.30149 -2.05616 -7.09047 
C -8.53031 -1.86869 -7.97989 
C -8.53636 -2.85514 -9.13678 
O -4.5586 2.03562 0.50647 
O -2.49179 -0.55425 2.146 
O -0.54503 -2.5175 2.36133 
C 2.25302 -1.73348 3.50988 
C 3.52537 -2.26006 4.15737 
O 2.69565 -4.22405 0.13598 
C 4.92811 -3.59459 -1.71516 
C 6.04505 -2.98311 -2.57443 
C 4.00164 -4.38775 -2.64973 
H 7.21218 0.01803 -0.02174 
H 8.67683 0.13023 1.8497 
H 8.37477 -1.61626 1.85626 
H 6.61858 -1.36776 3.521 
H 7.85182 -0.23857 4.10022 
H 5.27526 0.59128 3.55756 
H 6.66766 1.653 3.22731 
H 4.86547 -0.5104 -0.70979 
H 3.47404 -1.99334 -1.60702 
H 3.3123 -1.28804 1.13554 
H 1.89059 -3.57516 2.41025 
H 1.28307 -0.83886 0.39972 
H -1.4572 -1.35729 -0.01359 
H -0.53855 0.08529 -0.51078 
H -0.8139 0.57973 2.18865 
H -2.55749 2.10942 1.87437 
H -0.28756 2.81764 2.01537 
H 1.09358 3.30876 -0.52104 
H 3.16832 2.72097 -0.14375 
H 4.09408 2.26065 2.59674 
H 4.75091 4.64739 2.21556 
H 6.19998 3.62879 2.22099 
H 5.53213 4.20549 0.69315 
H 0.29956 5.57569 1.39984 
H -0.36619 5.34939 -0.20535 
H 2.57517 5.96341 0.41991 
H 1.05627 7.85907 0.90952 
H 2.07145 8.20232 -0.49691 
H 0.37124 7.75482 -0.72245 
H 2.43662 4.70379 -1.69568 
H 1.12822 5.75111 -2.27477 
H 2.76113 6.39886 -2.04515 
H -3.61979 -0.64275 -0.50302 
H -2.70493 0.47819 -1.54522 
H -4.85212 1.5773 -2.21427 
H -5.74618 0.42384 -1.22828 
H -4.82016 -1.46635 -2.59298 
H -3.92752 -0.31089 -3.58475 
H -6.08398 0.76883 -4.26816 
H -6.97676 -0.38735 -3.27739 
H -6.05261 -2.27349 -4.64552 
H -5.15956 -1.1174 -5.63616 
H -7.31601 -0.03795 -6.32044 
H -8.20906 -1.19416 -5.32993 
H -7.28471 -3.08032 -6.69818 
H -6.39154 -1.92441 -7.68854 
H -8.54968 -0.84752 -8.37805 
H -9.44289 -2.00351 -7.38767 
H -9.42345 -2.70339 -9.75965 
H -7.65162 -2.72478 -9.76811 
H -8.5497 -3.88726 -8.77225 
H -1.97832 -1.3601 2.39399 
H 1.43314 -1.81814 4.23365 
H 2.37274 -0.66349 3.29675 
H 3.75082 -1.69214 5.06541 
H 3.41571 -3.31343 4.43413 
H 4.38043 -2.17104 3.48211 
H 5.38762 -4.30473 -1.01638 
H 6.82557 -2.52546 -1.95978 
H 6.5326 -3.7522 -3.18376 
H 5.64913 -2.21798 -3.25106 
H 3.23646 -4.94126 -2.10102 
H 3.49533 -3.72492 -3.35999 
H 4.57265 -5.12337 -3.22725 
*