!RI BP86 def2-SVP def2/J D3BJ TIGHTSCF TightOpt Grid5 FinalGrid6 freq
%maxcore 950
%pal nprocs 16
end
* xyz 0 1 
O 3.30331 -0.80451 1.30432 
C 4.2092 -0.22108 1.90324 
C 4.00916 1.10284 2.68 
C 4.06093 0.8693 4.19005 
C 2.61238 0.53733 4.53665 
C 1.81621 1.45598 3.62213 
N 2.67055 1.65234 2.45749 
C 2.34845 2.32327 1.29496 
O 3.18297 2.45661 0.39299 
N 5.50617 -0.68926 1.91907 
C 5.93108 -2.01539 1.45147 
C 5.57883 -2.33048 -0.02655 
N 5.49465 -1.21933 -0.83807 
C 5.246 -1.26938 -2.27918 
C 3.83419 -1.82216 -2.6037 
N 2.878 -1.52716 -1.65575 
C 1.47348 -1.8741 -1.79244 
C 0.73183 -0.96319 -2.79071 
C -0.75623 -1.34622 -2.91687 
C -1.51832 -1.26912 -1.6022 
N -1.21824 -0.19156 -0.81328 
C -1.82479 0.10653 0.48837 
C -1.23808 1.44763 0.98691 
N 0.10734 1.60759 0.72944 
C 0.88121 2.77753 1.13626 
C 0.7599 3.87911 0.08952 
O -1.87223 2.24442 1.67836 
C -1.53037 -0.99416 1.52794 
C -2.78161 -1.44816 2.30766 
C -2.42892 -2.63533 3.2078 
C -3.38626 -0.32509 3.15099 
O -2.37081 -2.1 -1.28699 
C -1.44811 -0.52554 -3.99263 
C -2.8257 -0.98483 -4.44156 
C -3.84458 0.15314 -4.45575 
C -4.09639 0.73245 -3.05991 
C -5.22216 1.76823 -3.07801 
C -5.49434 2.37476 -1.69813 
C -4.40485 3.35138 -1.24733 
C -4.73871 3.9637 0.11465 
C -3.70748 5.01717 0.51808 
C -3.9973 5.58052 1.89977 
O -0.91665 0.46926 -4.50434 
O 0.88823 0.4177 -2.3835 
O 3.53969 -2.35107 -3.67731 
C 6.3405 -1.98999 -3.07669 
C 7.71778 -1.371 -2.88142 
O 5.50244 -3.47504 -0.47487 
C 5.60446 -3.18235 2.41525 
C 4.11037 -3.44714 2.60515 
C 6.27443 -2.98481 3.77886 
H 4.7708 1.81739 2.34775 
H 4.35257 1.79616 4.69914 
H 4.74854 0.07827 4.50014 
H 2.40156 -0.51076 4.29253 
H 2.38028 0.69344 5.59371 
H 0.85192 1.0276 3.33927 
H 1.65067 2.43448 4.08558 
H 6.19703 -0.14766 2.43177 
H 7.02804 -1.93131 1.42674 
H 5.60426 -0.30894 -0.39856 
H 5.2218 -0.21886 -2.59867 
H 3.18282 -1.07656 -0.79039 
H 1.05356 -1.78534 -0.78591 
H 1.40627 -2.92078 -2.1085 
H 1.21315 -1.04613 -3.77309 
H -0.7931 -2.39216 -3.25087 
H -0.58139 0.50233 -1.21206 
H -2.89714 0.23439 0.30607 
H 0.60887 0.85302 0.26308 
H 0.498 3.15484 2.08943 
H -0.2774 4.21569 -0.00615 
H 1.37648 4.7426 0.36032 
H 1.08409 3.5318 -0.89826 
H -0.76928 -0.65785 2.24435 
H -1.0987 -1.87539 1.03699 
H -3.53937 -1.78657 1.5896 
H -2.03441 -3.46864 2.61673 
H -1.67394 -2.35946 3.95198 
H -3.31471 -2.99664 3.74096 
H -3.77304 0.48191 2.52193 
H -4.22526 -0.69728 3.74891 
H -2.64549 0.09957 3.83689 
H -3.18211 -1.79555 -3.7989 
H -2.71492 -1.40388 -5.44807 
H -4.78603 -0.23031 -4.86732 
H -3.50544 0.95261 -5.12562 
H -3.17534 1.1928 -2.68877 
H -4.36021 -0.07546 -2.36699 
H -6.14149 1.28277 -3.42848 
H -4.99116 2.56467 -3.79552 
H -5.61358 1.57567 -0.95649 
H -6.45066 2.91071 -1.74278 
H -4.29982 4.14829 -1.99347 
H -3.43802 2.84055 -1.18099 
H -4.77486 3.17016 0.87112 
H -5.73372 4.42394 0.08106 
H -3.70796 5.83509 -0.21183 
H -2.70303 4.58119 0.51165 
H -3.25034 6.335 2.16569 
H -4.98427 6.05287 1.932 
H -3.96809 4.79189 2.65849 
H 0.59256 0.94043 -3.16456 
H 6.09512 -1.95345 -4.14542 
H 6.38196 -3.0524 -2.8122 
H 8.45149 -1.87889 -3.51551 
H 7.71298 -0.31044 -3.15232 
H 8.05394 -1.46141 -1.84397 
H 6.03308 -4.09662 1.9824 
H 3.59596 -3.55132 1.64506 
H 3.95924 -4.38026 3.15956 
H 3.62518 -2.65165 3.17837 
H 7.35402 -2.84049 3.66598 
H 5.86778 -2.11705 4.30729 
H 6.12204 -3.86391 4.41437 
*