!RI BP86 def2-SVP def2/J D3BJ TIGHTSCF TightOpt Grid5 FinalGrid6 freq
%maxcore 950
%pal nprocs 16
end
* xyz 0 1 
O 2.89922 -2.40867 -2.26931 
C 3.10101 -1.93284 -1.14847 
C 4.43977 -1.25432 -0.78427 
C 5.44955 -2.2959 -0.29493 
C 5.29697 -2.26924 1.22244 
C 5.00838 -0.80768 1.52431 
N 4.36512 -0.29286 0.32086 
C 3.92556 0.99618 0.10232 
O 3.46802 1.32979 -0.99921 
N 2.23163 -2.15281 -0.10234 
C 1.05833 -3.03179 -0.22018 
C -0.01529 -2.68806 0.84412 
N -0.06016 -1.35931 1.20905 
C -1.07232 -0.82698 2.12747 
C -2.17891 -0.20789 1.23944 
N -2.10809 1.14469 1.01592 
C -2.8978 1.81436 0.00435 
C -2.39547 3.22126 -0.37031 
C -0.89245 3.34367 -0.69119 
C -0.13527 3.70741 0.57411 
N 0.89557 4.60139 0.39176 
C 1.74938 5.08861 1.48071 
C 2.68737 3.9721 2.00765 
N 3.07568 3.07129 1.04217 
C 4.07731 2.02691 1.24244 
C 5.47701 2.635 1.20197 
O 3.17878 3.96822 3.13695 
C 0.99254 5.7841 2.62397 
C 0.02729 6.904 2.18534 
C 0.74468 8.03835 1.45279 
C -0.70686 7.4609 3.40817 
O -0.40132 3.22999 1.67794 
C -0.31996 2.09023 -1.34183 
C -0.5711 1.93961 -2.83554 
C -0.26684 0.54655 -3.38376 
C -1.27936 -0.50078 -2.91215 
C -1.08782 -1.82942 -3.64451 
C -2.05903 -2.89115 -3.12664 
C -1.92483 -4.19641 -3.91181 
C -2.83503 -5.28403 -3.33966 
C -2.68403 -6.59602 -4.10863 
C -3.5839 -7.68136 -3.53982 
O 0.34225 1.25956 -0.70761 
O -3.17281 3.68676 -1.49401 
O -2.99255 -0.91167 0.63129 
C -0.40634 0.06512 3.17647 
C -1.37672 0.56245 4.23765 
O -0.85165 -3.49453 1.2532 
C 1.4933 -4.52231 -0.20781 
C 1.91658 -5.02198 1.1766 
C 0.42914 -5.44517 -0.80664 
H 4.79913 -0.74577 -1.68676 
H 6.46501 -1.97655 -0.56021 
H 5.2884 -3.29626 -0.70817 
H 4.45098 -2.8921 1.52806 
H 6.18573 -2.63604 1.74378 
H 4.35745 -0.67714 2.39307 
H 5.93819 -0.25684 1.68795 
H 2.44856 -1.74346 0.80271 
H 0.60308 -2.80445 -1.1917 
H 0.48841 -0.69284 0.66387 
H -1.54756 -1.6645 2.65376 
H -1.45317 1.70855 1.55963 
H -3.9267 1.88073 0.37863 
H -2.95259 1.17784 -0.88673 
H -2.64766 3.89464 0.45958 
H -0.74464 4.16381 -1.40675 
H 1.07088 4.97652 -0.53638 
H 2.42271 5.81647 1.01032 
H 2.62553 3.121 0.12915 
H 3.88611 1.55928 2.21247 
H 5.61198 3.37033 2.00193 
H 6.25723 1.87761 1.30961 
H 5.65301 3.1494 0.24982 
H 1.72631 6.20121 3.32738 
H 0.43242 5.03771 3.20118 
H -0.72987 6.48532 1.51152 
H 1.17163 7.69431 0.50596 
H 0.04782 8.84999 1.21704 
H 1.55411 8.45483 2.06178 
H -1.26067 6.66888 3.92338 
H -0.00744 7.90708 4.1234 
H -1.42675 8.23148 3.11249 
H 0.07041 2.67123 -3.33999 
H -1.61184 2.19825 -3.053 
H 0.746 0.23536 -3.10067 
H -0.2899 0.59938 -4.47921 
H -2.29867 -0.13683 -3.08945 
H -1.17602 -0.65896 -1.83294 
H -0.05667 -2.17949 -3.51577 
H -1.24528 -1.67918 -4.71952 
H -3.08887 -2.52234 -3.20652 
H -1.8646 -3.07569 -2.06311 
H -0.88314 -4.53714 -3.88855 
H -2.1798 -4.01886 -4.96375 
H -3.87873 -4.94958 -3.38236 
H -2.59207 -5.44893 -2.28285 
H -1.6422 -6.93454 -4.06631 
H -2.93207 -6.43956 -5.16487 
H -3.4602 -8.61078 -4.10442 
H -3.3389 -7.88494 -2.49248 
H -4.63686 -7.3873 -3.59583 
H -3.00171 4.64876 -1.56735 
H 0.10723 0.91196 2.71028 
H 0.38131 -0.51159 3.67937 
H -0.84052 1.14914 4.99045 
H -2.15526 1.20052 3.81047 
H -1.86196 -0.27623 4.74709 
H 2.37497 -4.6216 -0.85526 
H 2.66205 -4.36153 1.62707 
H 1.0696 -5.0975 1.86488 
H 2.36306 -6.01961 1.09993 
H 0.1645 -5.12096 -1.8168 
H 0.80823 -6.47047 -0.8795 
H -0.48428 -5.47475 -0.20687 
*