!RI BP86 def2-SVP def2/J D3BJ TIGHTSCF TightOpt Grid5 FinalGrid6 freq
%maxcore 950
%pal nprocs 16
end
* xyz 0 1 
O 5.70984 1.63542 0.27514 
C 4.49245 1.57907 0.09842 
C 3.59932 2.82031 -0.17404 
C 4.32015 4.1326 0.12983 
C 4.05624 4.32971 1.61892 
C 2.62985 3.82829 1.79569 
N 2.43292 2.85552 0.72756 
C 1.28914 2.1265 0.48978 
O 1.21169 1.38788 -0.50153 
N 3.82407 0.38114 0.03343 
C 4.40924 -0.93614 0.29185 
C 3.76383 -1.93062 -0.70919 
N 4.12676 -3.25338 -0.58235 
C 3.71224 -4.27486 -1.56211 
C 2.1696 -4.43614 -1.59496 
N 1.53265 -4.15183 -0.40742 
C 0.08725 -4.04534 -0.28124 
C -0.44165 -2.75705 -0.94797 
C -1.93292 -2.52592 -0.66938 
C -2.32973 -1.91327 0.67037 
N -1.32613 -1.66092 1.56711 
C -1.51907 -0.99198 2.85706 
C -1.18815 0.51931 2.75502 
N -0.43993 0.89411 1.6628 
C 0.11988 2.23383 1.48917 
C -0.92081 3.20697 0.95448 
O -1.47251 1.32004 3.64866 
C -0.62187 -1.65169 3.92167 
C -1.3864 -2.09829 5.18512 
C -1.97746 -0.92079 5.96095 
C -0.45435 -2.89871 6.09913 
O -3.50672 -1.65092 0.9325 
C -2.52566 -1.71682 -1.81371 
C -2.03506 -0.28577 -1.99853 
C -2.91816 0.51665 -2.95246 
C -2.33962 1.91236 -3.19418 
C -3.24256 2.74229 -4.1044 
C -2.62383 4.06577 -4.56826 
C -2.28682 5.05163 -3.44419 
C -0.81987 4.98395 -3.00848 
C -0.51738 6.01078 -1.91675 
C 0.93861 5.94723 -1.48398 
O -3.34338 -2.2293 -2.58992 
O 0.3356 -1.62793 -0.49672 
O 1.55906 -4.86463 -2.57568 
C 4.38224 -5.61248 -1.2245 
C 4.25305 -6.64499 -2.33554 
O 2.95786 -1.57159 -1.57501 
C 4.23162 -1.36363 1.77118 
C 5.10247 -0.52455 2.71208 
C 2.77429 -1.31209 2.24136 
H 3.27028 2.77095 -1.21826 
H 3.85359 4.95134 -0.43174 
H 5.38767 4.1259 -0.10679 
H 4.74633 3.71133 2.20545 
H 4.17727 5.36822 1.93932 
H 2.48006 3.36303 2.77379 
H 1.89954 4.63327 1.66385 
H 2.85134 0.39933 -0.28122 
H 5.47775 -0.89564 0.04671 
H 4.8709 -3.48996 0.0676 
H 4.02852 -3.91364 -2.54807 
H 2.11632 -3.86008 0.37297 
H -0.12217 -4.05226 0.79264 
H -0.37571 -4.92861 -0.73383 
H -0.27632 -2.83209 -2.0306 
H -2.43885 -3.50151 -0.70527 
H -0.36537 -1.7647 1.23935 
H -2.57934 -1.06761 3.12071 
H -0.25311 0.20756 0.9319 
H 0.46816 2.56823 2.46905 
H -1.77973 3.28013 1.62929 
H -0.49414 4.20788 0.83813 
H -1.295 2.88914 -0.02444 
H 0.19265 -0.97612 4.21445 
H -0.13693 -2.5402 3.49456 
H -2.20787 -2.76025 4.88282 
H -2.73857 -0.39756 5.37498 
H -2.4603 -1.26637 6.88153 
H -1.20205 -0.19876 6.23826 
H -0.05501 -3.77497 5.57749 
H 0.39149 -2.28961 6.43596 
H -0.9898 -3.25559 6.98535 
H -1.01384 -0.32805 -2.39138 
H -2.01335 0.21165 -1.02372 
H -3.93024 0.59531 -2.53669 
H -3.00908 -0.00952 -3.91071 
H -1.34438 1.81872 -3.64479 
H -2.22177 2.42087 -2.23163 
H -4.19036 2.94435 -3.59014 
H -3.4922 2.15661 -4.99811 
H -3.35812 4.54622 -5.22793 
H -1.74081 3.86836 -5.1877 
H -2.95117 4.8997 -2.58545 
H -2.48135 6.06688 -3.8135 
H -0.17326 5.17364 -3.8741 
H -0.57371 3.98324 -2.64038 
H -1.16057 5.82992 -1.04803 
H -0.74057 7.02039 -2.28067 
H 1.13064 6.67168 -0.68653 
H 1.19115 4.95192 -1.10725 
H 1.60685 6.17619 -2.32018 
H 1.20855 -1.71645 -0.94782 
H 3.96381 -6.0255 -0.2982 
H 5.45116 -5.44761 -1.03834 
H 4.82352 -7.54382 -2.07998 
H 3.21248 -6.94624 -2.4859 
H 4.64211 -6.25531 -3.28149 
H 4.56932 -2.40112 1.88077 
H 6.14936 -0.53837 2.39183 
H 4.76835 0.51687 2.75634 
H 5.06226 -0.92603 3.73065 
H 2.12906 -1.9234 1.60637 
H 2.68869 -1.69812 3.26304 
H 2.3836 -0.28974 2.2426 
*