!RI BP86 def2-SVP def2/J D3BJ TIGHTSCF TightOpt Grid5 FinalGrid6 freq
%maxcore 950
%pal nprocs 16
end
* xyz 0 1 
O 3.69295 -2.87782 0.60782 
C 3.43569 -2.26235 -0.42709 
C 4.45145 -1.35586 -1.15624 
C 5.86987 -1.92172 -1.06979 
C 6.42637 -1.30651 0.20992 
C 5.8089 0.08267 0.2292 
N 4.5523 -0.0484 -0.49938 
C 3.59855 0.93104 -0.68191 
O 2.5551 0.69434 -1.30609 
N 2.17174 -2.23457 -0.97314 
C 1.05652 -3.08959 -0.55896 
C 0.65129 -2.89628 0.9235 
N 0.79762 -1.60426 1.37862 
C 0.40067 -1.17648 2.7157 
C 0.07245 0.32681 2.64664 
N -1.16623 0.66935 3.13659 
C -1.66403 2.02862 3.20539 
C -2.65812 2.41537 2.09052 
C -2.13489 2.60696 0.65842 
C -1.19239 3.79279 0.59198 
N 0.09672 3.58664 1.01265 
C 1.08752 4.66771 1.10922 
C 2.51672 4.07582 1.0238 
N 2.63565 3.01758 0.15107 
C 3.89899 2.34477 -0.13664 
C 4.69295 3.13132 -1.17513 
O 3.50256 4.57683 1.56582 
C 0.87843 5.46243 2.41033 
C 1.45881 6.89206 2.39134 
C 1.42191 7.48219 3.8041 
C 0.69435 7.81109 1.43548 
O -1.57928 4.90158 0.21429 
C -1.64502 1.37513 -0.09318 
C -1.07091 1.62684 -1.48807 
C -0.81045 0.35484 -2.293 
C -2.09855 -0.28199 -2.82214 
C -1.79631 -1.5449 -3.63053 
C -3.07691 -2.19113 -4.16 
C -2.76838 -3.46349 -4.9511 
C -4.04745 -4.11438 -5.47966 
C -3.73834 -5.38642 -6.26869 
C -5.00726 -6.03719 -6.79578 
O -1.76693 0.22508 0.34112 
O -3.79296 1.52302 2.08951 
O 0.84222 1.16119 2.16287 
C 1.53426 -1.43201 3.71544 
C 1.11251 -1.17918 5.15594 
O 0.10249 -3.76742 1.60001 
C 1.15212 -4.5694 -0.99994 
C 1.24272 -4.68832 -2.52539 
C 2.28869 -5.36185 -0.35393 
H 4.14172 -1.22791 -2.1998 
H 6.46001 -1.56951 -1.92493 
H 5.90822 -3.01512 -1.0571 
H 6.09254 -1.87938 1.08248 
H 7.51957 -1.27857 0.22659 
H 5.63048 0.44328 1.24585 
H 6.44186 0.80099 -0.30014 
H 2.00182 -1.57577 -1.73128 
H 0.19913 -2.66782 -1.10206 
H 1.21909 -0.91917 0.75287 
H -0.48986 -1.74571 3.00546 
H -1.80138 -0.07574 3.41155 
H -0.82919 2.73039 3.26959 
H -2.19076 2.07983 4.16611 
H -3.07037 3.38756 2.39603 
H -3.01445 2.90268 0.06339 
H 0.38184 2.66609 1.36099 
H 0.95133 5.30283 0.22825 
H 1.7972 2.66145 -0.30194 
H 4.46029 2.28251 0.79951 
H 4.92928 4.13717 -0.81267 
H 5.6337 2.63351 -1.42689 
H 4.12212 3.24157 -2.10457 
H 1.32372 4.89972 3.24216 
H -0.19356 5.53094 2.63952 
H 2.50634 6.86234 2.07207 
H 2.00198 6.86522 4.49856 
H 1.85151 8.48956 3.81691 
H 0.3958 7.54618 4.18211 
H 0.79257 7.48344 0.39681 
H -0.37223 7.84266 1.68276 
H 1.08235 8.83416 1.48924 
H -0.11976 2.15251 -1.36582 
H -1.75668 2.28228 -2.03599 
H -0.2576 -0.36821 -1.68397 
H -0.16786 0.60959 -3.14491 
H -2.63085 0.43911 -3.45427 
H -2.76586 -0.53428 -1.9904 
H -1.26079 -2.2629 -2.99947 
H -1.13548 -1.29604 -4.46972 
H -3.61052 -1.47881 -4.80085 
H -3.74092 -2.43255 -3.32109 
H -2.23289 -4.17403 -4.30952 
H -2.10472 -3.22237 -5.7904 
H -4.5828 -3.40445 -6.12189 
H -4.71137 -4.3549 -4.64036 
H -3.20643 -6.10104 -5.62986 
H -3.07827 -5.15078 -7.11159 
H -4.76295 -6.94462 -7.35685 
H -5.67584 -6.31508 -5.97473 
H -5.5472 -5.35929 -7.46454 
H -4.10219 1.46928 3.01688 
H 2.40126 -0.80228 3.47898 
H 1.87366 -2.47186 3.6309 
H 1.9336 -1.42532 5.83678 
H 0.84843 -0.12965 5.31734 
H 0.25117 -1.79803 5.42667 
H 0.217 -5.06023 -0.6968 
H 0.4017 -4.18006 -3.0079 
H 2.17069 -4.25173 -2.90936 
H 1.2146 -5.73917 -2.83328 
H 2.28681 -5.25463 0.73474 
H 2.17795 -6.42933 -0.57621 
H 3.26731 -5.05653 -0.73605 
*