!RI BP86 def2-SVP def2/J D3BJ TIGHTSCF TightOpt Grid5 FinalGrid6 freq
%maxcore 950
%pal nprocs 16
end
* xyz 0 1 
O 3.1627 -1.63191 2.86859 
C 4.32718 -1.43406 2.50392 
C 5.01914 -0.05712 2.61872 
C 5.89554 0.02454 3.86936 
C 4.94308 0.55738 4.93355 
C 4.06811 1.53441 4.16499 
N 4.04017 1.01777 2.80273 
C 3.25891 1.46077 1.75934 
O 3.3177 0.91929 0.64632 
N 5.03506 -2.49272 2.00364 
C 6.41321 -2.49416 1.49292 
C 6.49258 -2.24932 -0.03364 
N 5.29059 -2.26106 -0.70497 
C 5.21294 -2.22989 -2.16551 
C 3.87794 -1.67501 -2.71173 
N 3.26125 -0.73468 -1.91327 
C 1.99121 -0.10975 -2.27407 
C 0.80609 -0.76353 -1.53623 
C -0.5681 -0.15175 -1.83569 
C -0.6387 1.2887 -1.37368 
N -1.0431 1.4498 -0.0677 
C -1.23632 2.76161 0.56335 
C -0.07747 3.08874 1.53783 
N 1.12332 2.49714 1.22559 
C 2.33935 2.67311 2.01122 
C 3.06914 3.95055 1.61538 
O -0.1765 3.90453 2.45626 
C -2.58247 2.82684 1.30322 
C -3.82518 2.54238 0.43487 
C -5.08485 2.59121 1.30419 
C -3.96304 3.52345 -0.7296 
O -0.35982 2.24646 -2.09328 
C -1.00178 -0.29558 -3.28882 
C -2.40292 -0.82675 -3.5371 
C -3.45321 0.2139 -3.16835 
C -4.86831 -0.27905 -3.46793 
C -5.9082 0.76548 -3.05659 
C -7.33207 0.27421 -3.32199 
C -8.40195 1.33532 -3.04597 
C -8.4596 1.77616 -1.58178 
C -9.62304 2.73697 -1.33505 
C -9.67067 3.18975 0.11579 
O -0.29538 0.0383 -4.24676 
O 0.77119 -2.18056 -1.81383 
O 3.4657 -1.94121 -3.84366 
C 5.52892 -3.61037 -2.76902 
C 4.53983 -4.69865 -2.36382 
O 7.56846 -2.10691 -0.61892 
C 7.18247 -3.78274 1.8747 
C 7.32509 -3.91409 3.39398 
C 6.56668 -5.05956 1.29481 
H 5.58571 0.13592 1.70176 
H 6.70379 0.74842 3.7089 
H 6.34182 -0.92785 4.16757 
H 4.33209 -0.26318 5.32864 
H 5.46161 1.02851 5.77311 
H 3.06002 1.59536 4.58305 
H 4.50971 2.53586 4.1387 
H 4.50844 -3.35822 1.94073 
H 6.94325 -1.64638 1.93908 
H 4.43825 -2.40792 -0.16909 
H 5.98252 -1.52703 -2.51134 
H 3.68572 -0.47859 -1.02119 
H 1.88013 -0.19054 -3.35675 
H 2.07788 0.94909 -2.01292 
H 1.00709 -0.67564 -0.45988 
H -1.29957 -0.728 -1.25131 
H -1.17249 0.63016 0.52027 
H -1.19774 3.5386 -0.20837 
H 1.16394 1.87548 0.42229 
H 2.04303 2.72888 3.06107 
H 2.44097 4.83178 1.78175 
H 3.99023 4.07425 2.19397 
H 3.34426 3.93596 0.55445 
H -2.69088 3.81696 1.766 
H -2.56303 2.10711 2.1334 
H -3.75062 1.52834 0.02529 
H -5.01874 1.87055 2.12613 
H -5.23229 3.58694 1.73608 
H -5.97398 2.34233 0.71574 
H -3.14533 3.40786 -1.44709 
H -4.89725 3.35199 -1.27493 
H -3.96486 4.56018 -0.37666 
H -2.53532 -1.75157 -2.96498 
H -2.48394 -1.09321 -4.59747 
H -3.25918 1.1449 -3.71557 
H -3.37442 0.45644 -2.10314 
H -5.05402 -1.21526 -2.92768 
H -4.96494 -0.49637 -4.53842 
H -5.73011 1.69712 -3.60701 
H -5.78436 0.98742 -1.99083 
H -7.53406 -0.61621 -2.71419 
H -7.41794 -0.03362 -4.37144 
H -9.37583 0.92241 -3.33686 
H -8.22534 2.20806 -3.6865 
H -7.52406 2.27414 -1.30472 
H -8.56558 0.89673 -0.93529 
H -10.57065 2.24905 -1.59107 
H -9.52425 3.61565 -1.983 
H -10.5089 3.87604 0.27142 
H -9.80051 2.33631 0.78893 
H -8.74887 3.71029 0.39483 
H 0.20605 -2.5815 -1.12182 
H 6.53369 -3.92556 -2.46262 
H 5.54437 -3.54166 -3.86353 
H 4.83361 -5.65425 -2.81008 
H 4.51096 -4.83198 -1.27849 
H 3.52666 -4.46881 -2.70672 
H 8.19738 -3.70329 1.46189 
H 7.80822 -3.02728 3.81707 
H 6.3533 -4.0399 3.88261 
H 7.94286 -4.78153 3.65031 
H 6.50903 -5.01097 0.20366 
H 7.18291 -5.92934 1.54839 
H 5.56135 -5.24501 1.68489 
*