!RI BP86 def2-SVP def2/J D3BJ TIGHTSCF TightOpt Grid5 FinalGrid6 freq
%maxcore 950
%pal nprocs 16
end
* xyz 0 1 
O 5.90154 -2.34859 0.44192 
C 5.09295 -1.43406 0.28128 
C 5.28132 -0.28239 -0.74298 
C 6.72688 -0.16686 -1.22515 
C 7.35784 0.75518 -0.18742 
C 6.25257 1.75951 0.10587 
N 5.00984 1.04167 -0.15372 
C 3.73565 1.5333 0.01772 
O 2.74887 0.83342 -0.25436 
N 3.87473 -1.42632 0.91877 
C 3.44163 -2.40019 1.9246 
C 2.00636 -2.81131 1.5049 
N 1.91859 -3.22516 0.19049 
C 0.69241 -3.65779 -0.47894 
C -0.24523 -2.44099 -0.64947 
N -1.00155 -2.11827 0.45456 
C -1.8047 -0.91004 0.5393 
C -0.94588 0.29787 0.97337 
C -1.77194 1.59188 1.07511 
C -0.95895 2.8178 1.47889 
N -0.07505 2.62164 2.51172 
C 0.73785 3.68841 3.10097 
C 2.03991 3.93614 2.30054 
N 2.35221 2.9644 1.38345 
C 3.55878 2.96375 0.56078 
C 3.43374 3.93646 -0.60465 
O 2.78587 4.8919 2.52178 
C 1.11003 3.35296 4.55347 
C -0.08976 3.14932 5.50111 
C 0.41277 2.74553 6.88991 
C -0.96463 4.39847 5.61113 
O -1.12083 3.93309 0.98187 
C -2.54468 1.83912 -0.21393 
C -1.75281 2.15932 -1.48024 
C -2.57998 2.06294 -2.76359 
C -2.90126 0.61633 -3.14906 
C -3.67298 0.5505 -4.46828 
C -3.99134 -0.89544 -4.8527 
C -4.76176 -0.9638 -6.17221 
C -5.08002 -2.40977 -6.55617 
C -5.84963 -2.47827 -7.87495 
C -6.16783 -3.91415 -8.26031 
O -3.78155 1.77334 -0.21958 
O -0.37533 -0.01784 2.27114 
O -0.22543 -1.72651 -1.65479 
C 0.02328 -4.88741 0.14726 
C 0.88749 -6.13618 0.0298 
O 1.0344 -2.80787 2.26058 
C 3.49932 -1.81629 3.35549 
C 4.81068 -1.07149 3.63692 
C 3.33441 -2.92403 4.40458 
H 4.59226 -0.4688 -1.57491 
H 6.75216 0.32232 -2.20693 
H 7.2535 -1.12137 -1.30932 
H 7.59955 0.18713 0.71898 
H 8.27468 1.23345 -0.54291 
H 6.28481 2.11516 1.13931 
H 6.30071 2.61768 -0.57192 
H 3.2013 -0.71183 0.63714 
H 4.07927 -3.28956 1.85283 
H 2.76185 -3.15046 -0.37282 
H 0.99894 -3.92976 -1.49805 
H -0.86563 -2.66848 1.30253 
H -2.58392 -1.11175 1.28198 
H -2.27406 -0.74675 -0.43373 
H -0.09715 0.43192 0.29362 
H -2.51052 1.4686 1.88045 
H 0.04603 1.66297 2.85165 
H 0.16969 4.62379 3.04849 
H 1.6977 2.19256 1.2674 
H 4.39399 3.25006 1.20441 
H 3.29824 4.9633 -0.24987 
H 4.32541 3.91073 -1.23893 
H 2.57227 3.68864 -1.23564 
H 1.75322 4.1482 4.95381 
H 1.72228 2.44018 4.55979 
H -0.71135 2.32766 5.12473 
H 1.00964 1.82884 6.83635 
H 1.03527 3.531 7.33188 
H -0.42639 2.55662 7.56785 
H -1.44706 4.63234 4.65737 
H -1.76159 4.25063 6.348 
H -0.37658 5.26919 5.92011 
H -0.8901 1.49089 -1.55229 
H -1.37946 3.18393 -1.39024 
H -2.00772 2.52642 -3.57683 
H -3.50882 2.63688 -2.66204 
H -3.49445 0.14002 -2.36068 
H -1.96923 0.04616 -3.24241 
H -3.08225 1.02054 -5.2639 
H -4.60545 1.1207 -4.37717 
H -4.5826 -1.3653 -4.05729 
H -3.0586 -1.46564 -4.94184 
H -4.17036 -0.49416 -6.96762 
H -5.69443 -0.39357 -6.08299 
H -5.67143 -2.87956 -5.76081 
H -4.14738 -2.98019 -6.64501 
H -5.26092 -2.0135 -8.6744 
H -6.78508 -1.91306 -7.79017 
H -6.71806 -3.93969 -9.20609 
H -5.2511 -4.49936 -8.38467 
H -6.7838 -4.39824 -7.49574 
H 0.03395 -0.90776 2.16964 
H -0.93268 -5.07367 -0.35766 
H -0.21265 -4.72911 1.20439 
H 0.36164 -6.99891 0.45102 
H 1.11671 -6.35855 -1.0172 
H 1.83058 -6.01939 0.5727 
H 2.67905 -1.09787 3.48588 
H 4.90806 -0.18208 3.00612 
H 4.84823 -0.73054 4.67739 
H 5.6788 -1.71584 3.46171 
H 2.3873 -3.4581 4.28948 
H 4.14467 -3.65801 4.33371 
H 3.3498 -2.50374 5.41615 
*