!RI BP86 def2-SVP def2/J D3BJ TIGHTSCF TightOpt Grid5 FinalGrid6 freq
%maxcore 950
%pal nprocs 16
end
* xyz 0 1 
O 3.34541 -3.31532 3.05517 
C 2.56682 -2.52871 2.51744 
C 1.15391 -2.23798 3.06138 
C 0.11127 -3.11992 2.36936 
C -1.11531 -2.22205 2.26321 
C -0.5213 -0.84809 2.00012 
N 0.72944 -0.85869 2.74556 
C 1.38054 0.22864 3.30426 
O 2.31966 0.05064 4.08941 
N 2.83125 -1.92229 1.31337 
C 4.15444 -1.79133 0.71064 
C 4.20729 -0.33555 0.1708 
N 5.37706 0.03638 -0.44959 
C 5.63731 1.43238 -0.82083 
C 4.71322 1.88305 -1.97656 
N 4.44805 0.91813 -2.92663 
C 3.64881 1.16837 -4.11077 
C 2.35304 0.33397 -4.19877 
C 1.51612 0.32941 -2.91394 
C 1.02405 1.69619 -2.4946 
N 0.53666 1.73737 -1.20743 
C 0.04945 2.96294 -0.56876 
C -0.12575 2.7215 0.95319 
N 0.81726 1.89316 1.53034 
C 0.85027 1.64412 2.97283 
C 1.69068 2.71918 3.65923 
O -0.95992 3.31189 1.64257 
C -1.26298 3.45222 -1.21669 
C -1.2808 4.96671 -1.5144 
C -2.54945 5.32719 -2.2924 
C -1.1916 5.82445 -0.25271 
O 1.03755 2.67992 -3.23381 
C 0.39277 -0.68421 -3.01824 
C -0.83206 -0.3462 -3.85537 
C -2.11615 -0.92154 -3.25409 
C -2.49467 -0.23274 -1.93985 
C -3.73897 -0.85754 -1.30925 
C -4.09655 -0.15632 0.00247 
C -5.30581 -0.80767 0.67354 
C -5.64446 -0.11614 1.99512 
C -6.85037 -0.76801 2.67081 
C -7.18891 -0.08408 3.98576 
O 0.49413 -1.78694 -2.46111 
O 1.58663 0.78833 -5.33026 
O 4.34509 3.05242 -2.10449 
C 7.11041 1.5975 -1.21522 
C 7.53054 3.05374 -1.35689 
O 3.26774 0.4583 0.3121 
C 4.46041 -2.86936 -0.35261 
C 3.42968 -2.91449 -1.48012 
C 4.59687 -4.26089 0.27229 
H 1.14949 -2.35886 4.15022 
H -0.09236 -4.03375 2.93608 
H 0.43729 -3.42161 1.36629 
H -1.80911 -2.538 1.47924 
H -1.65412 -2.2208 3.21847 
H -0.27776 -0.72287 0.94027 
H -1.18478 -0.04175 2.31985 
H 2.10636 -1.3098 0.94351 
H 4.9007 -1.8501 1.51346 
H 6.14888 -0.62371 -0.47801 
H 5.39828 2.04827 0.05486 
H 4.84785 -0.00661 -2.78043 
H 4.28049 0.93055 -4.97499 
H 3.42526 2.23705 -4.19767 
H 2.63631 -0.70204 -4.42438 
H 2.15073 -0.02435 -2.09273 
H 0.5324 0.88183 -0.65761 
H 0.8461 3.7066 -0.69141 
H 1.58867 1.53475 0.96307 
H -0.17025 1.70822 3.36847 
H 1.29082 3.7193 3.46066 
H 1.70837 2.57174 4.74431 
H 2.72628 2.69907 3.30073 
H -2.12787 3.18904 -0.59424 
H -1.42353 2.93102 -2.169 
H -0.42028 5.20593 -2.15227 
H -2.60726 4.76041 -3.22774 
H -3.4496 5.10952 -1.70744 
H -2.56023 6.39199 -2.54837 
H -0.24854 5.66012 0.27692 
H -1.23902 6.8894 -0.50523 
H -2.01578 5.60671 0.43465 
H -0.67 -0.76753 -4.85347 
H -0.93481 0.73714 -3.96455 
H -2.00683 -2.00027 -3.09014 
H -2.93188 -0.79054 -3.97535 
H -2.67602 0.83159 -2.12764 
H -1.66465 -0.29973 -1.22793 
H -3.5578 -1.92253 -1.11984 
H -4.5825 -0.78987 -2.00661 
H -4.30813 0.90212 -0.19278 
H -3.23845 -0.19174 0.68363 
H -5.09643 -1.86839 0.8582 
H -6.17008 -0.76039 4e-05 
H -5.85456 0.94465 1.81163 
H -4.77801 -0.16233 2.6663 
H -6.64371 -1.82789 2.85966 
H -7.72073 -0.7204 2.00607 
H -8.05384 -0.56614 4.45205 
H -6.34924 -0.14218 4.68572 
H -7.43246 0.9714 3.82768 
H 1.35208 1.724 -5.13548 
H 7.31684 1.07046 -2.15505 
H 7.74553 1.13238 -0.45054 
H 8.60511 3.11633 -1.55673 
H 7.0107 3.54286 -2.18576 
H 7.32408 3.61333 -0.43914 
H 5.42957 -2.63852 -0.81179 
H 3.386 -1.95893 -2.00701 
H 3.69694 -3.67902 -2.21785 
H 2.43019 -3.15243 -1.10314 
H 5.32502 -4.25305 1.0899 
H 3.64131 -4.62591 0.66194 
H 4.94549 -4.98374 -0.47356 
*