!RI BP86 def2-SVP def2/J D3BJ TIGHTSCF TightOpt Grid5 FinalGrid6 freq
%maxcore 950
%pal nprocs 16
end
* xyz 0 1 
O 4.08975 -1.98394 -0.82732 
C 3.43083 -1.02442 -1.23508 
C 4.01687 0.40752 -1.35109 
C 5.24827 0.5469 -0.44113 
C 5.22386 2.00163 -0.00362 
C 3.73872 2.27725 0.14318 
N 3.13337 1.52167 -0.94732 
C 2.05535 1.93886 -1.71179 
O 1.78582 1.35511 -2.76887 
N 2.17232 -1.19412 -1.76235 
C 1.5651 -2.49512 -2.06445 
C 1.48747 -3.43744 -0.83397 
N 1.13367 -2.80844 0.34729 
C 1.02081 -3.54697 1.60847 
C 0.07807 -2.84049 2.60333 
N 0.30747 -1.49852 2.80535 
C -0.36581 -0.72195 3.83442 
C -1.82373 -0.31674 3.51755 
C -2.07822 0.53054 2.26598 
C -1.63704 1.97119 2.43077 
N -0.28572 2.19241 2.48357 
C 0.31348 3.53265 2.50491 
C 0.64773 3.98309 1.06006 
N 0.8017 2.96539 0.14514 
C 1.25114 3.17276 -1.22906 
C 0.05607 3.45365 -2.1333 
O 0.8827 5.15718 0.7673 
C 1.56881 3.49354 3.38923 
C 2.27668 4.84273 3.62084 
C 1.36469 5.87746 4.2799 
C 3.52271 4.62712 4.48545 
O -2.45157 2.89262 2.51841 
C -1.57243 -0.10863 0.98474 
C -2.476 -1.15967 0.34946 
C -2.34533 -1.218 -1.16967 
C -2.89255 0.0378 -1.85426 
C -2.86439 -0.03946 -3.38471 
C -1.45661 -0.21288 -3.95732 
C -1.44577 -0.09219 -5.48151 
C -0.03568 -0.30125 -6.03697 
C -0.01106 -0.176 -7.55947 
C 1.38939 -0.38989 -8.11141 
O -0.46644 0.17134 0.49903 
O -2.6997 -1.46575 3.49309 
O -0.76482 -3.45014 3.26741 
C 2.41461 -3.73884 2.22773 
C 2.40593 -4.68282 3.42219 
O 1.58242 -4.66396 -0.90138 
C 2.08866 -3.10712 -3.38738 
C 3.48783 -3.7193 -3.31436 
C 1.09996 -4.13034 -3.96116 
H 4.29187 0.56704 -2.40119 
H 6.17507 0.28289 -0.95995 
H 5.16967 -0.09441 0.44558 
H 5.77969 2.17881 0.92107 
H 5.65092 2.63364 -0.79153 
H 3.35582 1.86258 1.08091 
H 3.52366 3.346 0.0968 
H 1.74142 -0.37742 -2.19626 
H 0.51755 -2.23261 -2.2504 
H 0.97064 -1.8027 0.32045 
H 0.57716 -4.52404 1.3808 
H 1.04079 -1.04969 2.26222 
H 0.25527 0.15333 4.03985 
H -0.36295 -1.33481 4.74447 
H -2.16565 0.2666 4.38245 
H -3.16877 0.60154 2.13614 
H 0.33659 1.41061 2.29658 
H -0.42895 4.2315 2.90242 
H 0.51329 2.02303 0.40676 
H 1.9173 4.04224 -1.26351 
H -0.48574 4.3459 -1.80191 
H 0.37476 3.61445 -3.16854 
H -0.6501 2.61701 -2.12608 
H 2.29115 2.79179 2.95294 
H 1.29418 3.06775 4.36459 
H 2.61693 5.2436 2.65938 
H 0.53509 6.1544 3.62274 
H 0.94626 5.49764 5.21805 
H 1.91812 6.7957 4.50468 
H 4.20755 3.91664 4.01024 
H 4.06548 5.56773 4.62736 
H 3.2588 4.23574 5.47388 
H -3.51902 -0.95779 0.61463 
H -2.20466 -2.12898 0.78011 
H -2.89049 -2.09566 -1.53671 
H -1.29474 -1.3572 -1.43159 
H -2.32593 0.91779 -1.52942 
H -3.93034 0.19887 -1.53741 
H -3.30718 0.88268 -3.78089 
H -3.5015 -0.86618 -3.72175 
H -1.06433 -1.19676 -3.68046 
H -0.78712 0.53966 -3.52665 
H -1.81504 0.89771 -5.77542 
H -2.12634 -0.835 -5.91488 
H 0.32948 -1.29344 -5.74539 
H 0.64657 0.43589 -5.59607 
H -0.36791 0.81666 -7.85763 
H -0.68969 -0.91259 -8.00507 
H 1.38539 -0.29691 -9.20192 
H 2.0869 0.35199 -7.70958 
H 1.76343 -1.3867 -7.85661 
H -2.1311 -2.26622 3.57252 
H 2.83441 -2.7732 2.53565 
H 3.10106 -4.14644 1.47523 
H 3.42683 -4.83764 3.7858 
H 1.81612 -4.2773 4.2497 
H 1.99289 -5.65864 3.14782 
H 2.14182 -2.29165 -4.12277 
H 4.2463 -2.95347 -3.13351 
H 3.56797 -4.47932 -2.53252 
H 3.74869 -4.1967 -4.26577 
H 0.09581 -3.70129 -4.04433 
H 1.40796 -4.43844 -4.9665 
H 1.03691 -5.03196 -3.34543 
*