!RI BP86 def2-SVP def2/J D3BJ TIGHTSCF TightOpt Grid5 FinalGrid6 freq
%maxcore 950
%pal nprocs 16
end
* xyz 0 1 
O 7.37072 1.95506 1.48298 
C 6.58664 1.1544 1.99608 
C 5.8562 1.45359 3.31968 
C 6.67261 0.90323 4.49866 
C 5.62873 0.34347 5.45799 
C 4.54746 -0.17525 4.52785 
N 4.54398 0.79775 3.44363 
C 3.45861 1.2827 2.74359 
O 3.61575 2.1185 1.84239 
N 6.45031 -0.13671 1.53798 
C 7.23688 -0.70258 0.43796 
C 6.39095 -1.71009 -0.37909 
N 5.04176 -1.44047 -0.40824 
C 4.08056 -2.30923 -1.07786 
C 2.82471 -1.51871 -1.48769 
N 2.09369 -2.10742 -2.4969 
C 0.80245 -1.59898 -2.94164 
C -0.33168 -2.1855 -2.08009 
C -1.63641 -1.3792 -2.09883 
C -1.40493 -0.03882 -1.42926 
N -1.23803 -0.09846 -0.0667 
C -0.96123 1.0869 0.74735 
C -0.14304 0.58528 1.95378 
N 1.13322 1.08395 2.03319 
C 2.04348 0.81601 3.14811 
C 1.58837 1.5942 4.38332 
O -0.57526 -0.24768 2.75378 
C -2.28412 1.7346 1.19175 
C -2.20547 3.25826 1.41831 
C -1.25149 3.64982 2.54478 
C -3.60497 3.80551 1.71633 
O -1.36511 1.02513 -2.04745 
C -2.26637 -1.21249 -3.47631 
C -3.73046 -0.78168 -3.47895 
C -4.24526 -0.45052 -4.87868 
C -5.72256 -0.04658 -4.90024 
C -5.99636 1.28163 -4.18841 
C -7.46664 1.68838 -4.31522 
C -7.76969 3.06543 -3.71625 
C -7.56684 3.13018 -2.20052 
C -7.99617 4.48741 -1.6415 
C -7.78573 4.56205 -0.13748 
O -1.65417 -1.41691 -4.52917 
O -0.56389 -3.55651 -2.46649 
O 2.47428 -0.47644 -0.9302 
C 3.70453 -3.51714 -0.20454 
C 3.07522 -3.14157 1.13375 
O 6.88068 -2.61983 -1.0511 
C 8.55312 -1.36566 0.92187 
C 8.31578 -2.44218 1.98764 
C 9.56991 -0.3435 1.43572 
H 5.70713 2.53667 3.40072 
H 7.28342 1.68135 4.96754 
H 7.35243 0.10219 4.18603 
H 6.02938 -0.43282 6.11546 
H 5.2313 1.153 6.08213 
H 4.82868 -1.14372 4.09982 
H 3.58217 -0.28275 5.0221 
H 5.79883 -0.74714 2.0245 
H 7.48009 0.11254 -0.25576 
H 4.69335 -0.60905 0.06648 
H 4.55251 -2.67844 -1.99733 
H 2.40918 -2.99246 -2.88648 
H 0.71061 -1.90519 -3.98761 
H 0.83328 -0.50706 -2.88628 
H 0.02651 -2.24117 -1.04374 
H -2.37633 -1.93487 -1.50567 
H -1.32257 -0.98858 0.42029 
H -0.37177 1.78576 0.1438 
H 1.48432 1.68828 1.29159 
H 2.04001 -0.26224 3.33572 
H 0.59702 1.26749 4.71375 
H 2.27663 1.47795 5.22472 
H 1.52541 2.66725 4.16685 
H -2.66412 1.24727 2.0992 
H -3.04412 1.55847 0.41789 
H -1.85468 3.73164 0.49236 
H -0.2132 3.45325 2.26671 
H -1.32343 4.72105 2.76259 
H -1.47493 3.10248 3.46647 
H -4.29627 3.57336 0.89925 
H -4.01171 3.37567 2.63808 
H -3.58176 4.89445 1.83103 
H -3.82245 0.09384 -2.83024 
H -4.31952 -1.59794 -3.0466 
H -4.1185 -1.328 -5.52532 
H -3.63712 0.34878 -5.32024 
H -6.32855 -0.84164 -4.44905 
H -6.03877 0.03688 -5.94743 
H -5.3598 2.06519 -4.61633 
H -5.73608 1.18955 -3.1297 
H -8.10196 0.93229 -3.83805 
H -7.74347 1.70953 -5.37658 
H -8.81189 3.31677 -3.94942 
H -7.14564 3.8234 -4.20527 
H -6.51257 2.96123 -1.9544 
H -8.14601 2.33423 -1.71715 
H -9.05446 4.66495 -1.86546 
H -7.42315 5.28726 -2.12484 
H -8.10147 5.5391 0.24141 
H -8.36849 3.79266 0.37898 
H -6.73049 4.42368 0.11826 
H -1.15957 -3.9368 -1.78878 
H 4.6015 -4.11685 -0.00727 
H 3.00549 -4.1643 -0.74777 
H 2.84587 -4.04717 1.70465 
H 3.75207 -2.52966 1.73807 
H 2.14026 -2.58977 0.99659 
H 9.02091 -1.85974 0.05974 
H 7.62375 -3.21138 1.63093 
H 9.25697 -2.94057 2.2444 
H 7.90475 -2.01708 2.90887 
H 9.74125 0.44429 0.69505 
H 9.24357 0.1231 2.36991 
H 10.53289 -0.82802 1.63143 
*