!RI BP86 def2-SVP def2/J D3BJ TIGHTSCF TightOpt Grid5 FinalGrid6 freq
%maxcore 950
%pal nprocs 16
end
* xyz 0 1 
O 1.19252 -2.83643 -2.23717 
C 1.96942 -2.01428 -1.74695 
C 2.46779 -0.78708 -2.53792 
C 3.76666 -1.14012 -3.27524 
C 4.60319 0.13026 -3.1943 
C 4.23636 0.70003 -1.83549 
N 2.82533 0.36766 -1.69889 
C 1.83893 1.12134 -1.10101 
O 0.65665 0.75504 -1.16254 
N 2.59916 -2.22931 -0.53999 
C 2.47617 -3.47147 0.23257 
C 2.49629 -3.19789 1.75883 
N 1.94509 -1.9957 2.13688 
C 1.87699 -1.55616 3.5356 
C 0.67796 -0.59684 3.64724 
N -0.53264 -1.18511 3.32615 
C -1.72791 -0.38651 3.11436 
C -1.81455 0.14283 1.66049 
C -2.63595 1.43855 1.59072 
C -1.88048 2.75526 1.76612 
N -0.70672 2.72102 2.4794 
C 0.217 3.85837 2.59899 
C 1.42361 3.6858 1.62976 
N 1.27337 2.70932 0.67261 
C 2.2282 2.44422 -0.404 
C 2.19852 3.56681 -1.43938 
O 2.41495 4.41753 1.6525 
C 0.68925 3.98703 4.05567 
C 1.18119 5.39213 4.46108 
C 0.0472 6.41966 4.47861 
C 1.8328 5.32909 5.84598 
O -2.32137 3.81639 1.31491 
C -3.44291 1.41544 0.3022 
C -2.75763 1.78148 -1.00376 
C -2.6736 0.57544 -1.93464 
C -2.00054 0.93913 -3.25914 
C -1.72688 -0.30767 -4.10294 
C -1.0289 0.05388 -5.41574 
C -0.78543 -1.15464 -6.3257 
C 0.22649 -2.14871 -5.74923 
C 0.62421 -3.24825 -6.73679 
C -0.5236 -4.17555 -7.10473 
O -4.62403 1.03849 0.30423 
O -0.48969 0.33152 1.13053 
O 0.76304 0.58735 3.975 
C 3.2002 -0.90251 3.95052 
C 3.31209 -0.71713 5.45778 
O 2.85266 -4.0306 2.59469 
C 3.55591 -4.51927 -0.1466 
C 3.34778 -5.09393 -1.55007 
C 4.98177 -3.9718 -0.01469 
H 1.67987 -0.47277 -3.23186 
H 3.57833 -1.44363 -4.30991 
H 4.30115 -1.96316 -2.787 
H 5.67507 -0.05862 -3.29813 
H 4.29677 0.82308 -3.98742 
H 4.77547 0.18731 -1.03158 
H 4.43234 1.77085 -1.76823 
H 3.23735 -1.51288 -0.2028 
H 1.4844 -3.89503 0.02674 
H 1.57339 -1.38223 1.41197 
H 1.67592 -2.43298 4.16302 
H -0.52981 -2.15781 3.02862 
H -1.72003 0.43631 3.83732 
H -2.60019 -1.00818 3.34227 
H -2.27216 -0.65527 1.0619 
H -3.38758 1.4289 2.39343 
H -0.32978 1.82214 2.78482 
H -0.312 4.75721 2.27075 
H 0.47798 2.07603 0.76315 
H 3.21936 2.35905 0.05162 
H 2.51841 4.51881 -1.0044 
H 2.85076 3.35079 -2.29095 
H 1.18513 3.70867 -1.83342 
H 1.49506 3.26175 4.23112 
H -0.12842 3.70074 4.73157 
H 1.9436 5.7354 3.75364 
H -0.36729 6.57965 3.47942 
H -0.7672 6.1012 5.13815 
H 0.4095 7.38971 4.83629 
H 2.67804 4.63265 5.84691 
H 2.21277 6.31244 6.1429 
H 1.11846 4.99744 6.60731 
H -1.75466 2.17098 -0.80706 
H -3.33254 2.59307 -1.46391 
H -3.67787 0.18009 -2.13089 
H -2.11657 -0.22977 -1.44169 
H -1.05603 1.46156 -3.06838 
H -2.64204 1.63302 -3.81576 
H -2.67116 -0.82288 -4.31571 
H -1.10215 -0.99795 -3.52522 
H -0.07518 0.55303 -5.20487 
H -1.6487 0.77564 -5.96212 
H -0.41505 -0.78673 -7.29046 
H -1.74028 -1.65556 -6.52134 
H -0.17361 -2.61239 -4.84084 
H 1.13466 -1.60746 -5.45871 
H 1.42489 -3.84651 -6.28558 
H 1.03851 -2.80066 -7.64762 
H -0.15891 -4.99199 -7.73635 
H -0.97571 -4.61548 -6.21023 
H -1.30237 -3.64786 -7.66298 
H -0.53662 0.23635 0.15161 
H 3.32154 0.06818 3.45378 
H 4.04171 -1.52508 3.62186 
H 4.28114 -0.27526 5.71086 
H 2.53156 -0.05525 5.84366 
H 3.23412 -1.67826 5.97602 
H 3.46735 -5.36516 0.54823 
H 2.32922 -5.47746 -1.66859 
H 3.53004 -4.34776 -2.32887 
H 4.03712 -5.92679 -1.7277 
H 5.17067 -3.59049 0.99365 
H 5.71479 -4.76215 -0.21007 
H 5.17242 -3.16118 -0.72524 
*