!RI BP86 def2-SVP def2/J D3BJ TIGHTSCF TightOpt Grid5 FinalGrid6 freq
%maxcore 950
%pal nprocs 16
end
* xyz 0 1 
O 6.84245 -0.64483 -0.14795 
C 5.93887 0.00703 0.37938 
C 5.82641 1.53849 0.22042 
C 7.01969 2.23349 0.87937 
C 6.49207 2.59377 2.26321 
C 5.05072 2.98921 1.98709 
N 4.65319 2.16187 0.85523 
C 3.39804 2.08318 0.28748 
O 3.17819 1.26125 -0.6127 
N 4.96274 -0.58239 1.14838 
C 4.82181 -2.03681 1.27643 
C 4.04193 -2.63015 0.06874 
N 3.3509 -1.71435 -0.69623 
C 2.67189 -2.02735 -1.95775 
C 1.41165 -2.90419 -1.75874 
N 0.77581 -2.69265 -0.55433 
C -0.47153 -3.32513 -0.18466 
C -1.23004 -2.59198 0.93233 
C -1.81676 -1.21192 0.57475 
C -1.69199 -0.2812 1.76957 
N -0.41418 0.09438 2.10306 
C -0.10329 1.041 3.17665 
C 1.14535 1.86734 2.7755 
N 1.22838 2.15089 1.42698 
C 2.27596 2.98604 0.84554 
C 1.70386 3.82838 -0.28927 
O 1.92757 2.35957 3.58898 
C 0.09366 0.29436 4.50424 
C -0.11602 1.15963 5.76429 
C -1.58148 1.56014 5.95056 
C 0.36419 0.39433 7.00091 
O -2.67511 0.09246 2.41177 
C -1.24952 -0.56745 -0.68286 
C -2.00964 -0.78417 -1.97592 
C -2.99961 0.35251 -2.2005 
C -3.77014 0.16818 -3.50758 
C -4.76303 1.30942 -3.73356 
C -5.53408 1.12513 -5.04163 
C -6.52713 2.26638 -5.26755 
C -7.29819 2.08223 -6.57564 
C -8.2906 3.2226 -6.80125 
C -9.05931 3.04322 -8.10064 
O -0.23032 0.13679 -0.66836 
O -2.30891 -3.46451 1.34578 
O 0.91696 -3.60475 -2.64256 
C 3.60268 -2.59759 -3.03562 
C 4.74641 -1.65489 -3.38482 
O 3.9818 -3.84036 -0.15456 
C 4.20864 -2.40211 2.64604 
C 2.71376 -2.09387 2.74806 
C 4.46392 -3.86688 3.01191 
H 5.79321 1.73841 -0.85742 
H 7.26126 3.15314 0.33221 
H 7.92375 1.6196 0.92988 
H 6.52324 1.71188 2.9144 
H 7.06273 3.39365 2.74278 
H 4.39973 2.81336 2.84595 
H 4.97658 4.03905 1.68338 
H 4.25158 0.02287 1.54912 
H 5.83341 -2.45799 1.21308 
H 3.43949 -0.72579 -0.45565 
H 2.28593 -1.06249 -2.31422 
H 1.27798 -2.12205 0.12227 
H -0.22075 -4.33953 0.14985 
H -1.10341 -3.45794 -1.06983 
H -0.56157 -2.52388 1.79925 
H -2.89851 -1.31333 0.40749 
H 0.35606 -0.23536 1.52506 
H -0.93853 1.74572 3.23753 
H 0.59035 1.67237 0.78988 
H 2.65469 3.66051 1.61582 
H 0.90975 4.48684 0.07877 
H 2.48316 4.44919 -0.74387 
H 1.27367 3.20183 -1.07909 
H 1.10572 -0.13005 4.52405 
H -0.59242 -0.56208 4.55463 
H 0.48189 2.07456 5.68754 
H -1.93024 2.20297 5.13757 
H -2.23181 0.67968 5.99057 
H -1.71425 2.11878 6.88353 
H 1.42492 0.13688 6.91135 
H 0.24511 1.00081 7.90506 
H -0.20038 -0.53425 7.13839 
H -2.52313 -1.7505 -1.93972 
H -1.2812 -0.83924 -2.79303 
H -2.46395 1.30998 -2.2171 
H -3.70236 0.40349 -1.35959 
H -4.30778 -0.78756 -3.48522 
H -3.06491 0.12315 -4.34641 
H -4.22535 2.26515 -3.75559 
H -5.46818 1.35433 -2.89467 
H -6.07167 0.16936 -5.01961 
H -4.82891 1.08031 -5.88051 
H -5.98952 3.22216 -5.28949 
H -7.2323 2.31114 -4.42867 
H -7.83568 1.12634 -6.55397 
H -6.59314 2.0374 -7.41467 
H -7.75782 4.18027 -6.82798 
H -9.00038 3.26923 -5.96713 
H -9.76308 3.86947 -8.24183 
H -8.38013 3.02501 -8.95897 
H -9.62949 2.10877 -8.09336 
H -2.7059 -3.05185 2.14135 
H 3.0277 -2.79228 -3.94939 
H 4.01385 -3.56406 -2.72316 
H 5.34281 -2.07383 -4.20157 
H 4.36709 -0.6802 -3.7078 
H 5.41256 -1.50045 -2.53118 
H 4.71707 -1.79425 3.4076 
H 2.49754 -1.06066 2.46271 
H 2.12156 -2.75934 2.11357 
H 2.36629 -2.233 3.77759 
H 5.53185 -4.10274 2.9588 
H 4.13077 -4.06966 4.03569 
H 3.92824 -4.55293 2.34891 
*