!RI BP86 def2-SVP def2/J D3BJ TIGHTSCF TightOpt Grid5 FinalGrid6 freq
%maxcore 950
%pal nprocs 16
end
* xyz 0 1 
O 2.19325 -3.52318 2.87654 
C 2.29657 -2.31643 2.65262 
C 3.18693 -1.38866 3.50448 
C 2.43597 -1.02221 4.79085 
C 2.85722 0.41229 5.07435 
C 2.98812 1.01407 3.68651 
N 3.4908 -0.08867 2.87645 
C 4.32566 2e-05 1.77505 
O 4.73108 -1.02735 1.21863 
N 1.51418 -1.66778 1.72706 
C 0.53931 -2.32293 0.85141 
C 0.93964 -2.12921 -0.63261 
N 2.30258 -2.14103 -0.85494 
C 2.92507 -1.81964 -2.1461 
C 2.75837 -0.28812 -2.33535 
N 2.9721 0.22907 -3.58827 
C 2.96161 1.65487 -3.89046 
C 1.60051 2.19046 -4.37696 
C 0.51664 2.28975 -3.29057 
C 0.79558 3.37057 -2.25668 
N 1.54678 2.94808 -1.18903 
C 1.84269 3.75797 -0.00142 
C 3.20148 3.3511 0.6218 
N 3.44816 2.0 0.68842 
C 4.66436 1.41551 1.24756 
C 5.75482 1.36035 0.18161 
O 3.95259 4.17114 1.15511 
C 0.70552 3.57364 1.01883 
C 0.82685 4.4119 2.30623 
C -0.31571 4.05489 3.26146 
C 0.81541 5.91432 2.02455 
O 0.35166 4.51583 -2.33314 
C -0.8575 2.49132 -3.91523 
C -2.06313 2.21476 -3.03412 
C -2.36725 0.72179 -2.9791 
C -3.49402 0.41949 -1.99176 
C -3.74008 -1.08551 -1.8784 
C -4.77369 -1.40173 -0.79701 
C -4.97766 -2.91015 -0.64869 
C -5.99234 -3.2284 0.45039 
C -6.1912 -4.73606 0.60323 
C -7.19809 -5.0571 1.69616 
O -1.00764 2.84877 -5.09087 
O 1.81854 3.46134 -5.01933 
O 2.509 0.45814 -1.38022 
C 2.40148 -2.69868 -3.29021 
C 3.51074 -3.14011 -4.23887 
O 0.12555 -2.07805 -1.55537 
C -0.90268 -1.84377 1.13254 
C -1.38879 -2.32316 2.5034 
C -1.05812 -0.32206 1.03008 
H 4.13525 -1.89811 3.70937 
H 2.68453 -1.69719 5.61585 
H 1.34897 -1.06483 4.64814 
H 2.14184 0.95063 5.70196 
H 3.83063 0.41701 5.57957 
H 2.00976 1.29913 3.28511 
H 3.6475 1.88314 3.67902 
H 1.6821 -0.67357 1.59387 
H 0.59099 -3.40584 1.02236 
H 2.90559 -2.13287 -0.03381 
H 3.9975 -1.99594 -1.99714 
H 3.16814 -0.40417 -4.3568 
H 3.70353 1.79789 -4.6857 
H 3.33608 2.22257 -3.03314 
H 1.25133 1.51172 -5.16686 
H 0.46066 1.32225 -2.78039 
H 1.89239 1.98892 -1.2174 
H 1.91733 4.80076 -0.32626 
H 2.81108 1.35305 0.22715 
H 5.02654 2.03633 2.07247 
H 6.00567 2.36529 -0.17432 
H 6.66608 0.90174 0.57976 
H 5.43638 0.77309 -0.68722 
H 0.64828 2.51222 1.29695 
H -0.25214 3.80493 0.53247 
H 1.76567 4.16297 2.81478 
H -0.29891 2.98738 3.5061 
H -0.22691 4.61232 4.19996 
H -1.29097 4.28694 2.82007 
H 1.69374 6.21886 1.44786 
H -0.07928 6.20645 1.46446 
H 0.82915 6.48456 2.95973 
H -2.91929 2.7671 -3.43831 
H -1.87134 2.61711 -2.03368 
H -1.47023 0.16504 -2.68483 
H -2.63931 0.36391 -3.97977 
H -4.41436 0.92216 -2.31245 
H -3.23256 0.82373 -1.00664 
H -2.79873 -1.59474 -1.64176 
H -4.08202 -1.47601 -2.8445 
H -5.72737 -0.92175 -1.04765 
H -4.44261 -0.9831 0.16119 
H -4.01951 -3.38871 -0.41172 
H -5.3221 -3.32994 -1.60157 
H -6.95192 -2.75274 0.21382 
H -5.64778 -2.80541 1.40201 
H -5.23499 -5.21541 0.84335 
H -6.53987 -5.16375 -0.34397 
H -7.32488 -6.1403 1.78842 
H -6.8631 -4.67061 2.66402 
H -8.17538 -4.61865 1.47033 
H 0.95113 3.70256 -5.41513 
H 1.62335 -2.17837 -3.86061 
H 1.94383 -3.61211 -2.89007 
H 3.09293 -3.74777 -5.04795 
H 4.03002 -2.29046 -4.68915 
H 4.25181 -3.74927 -3.71084 
H -1.56594 -2.29464 0.38356 
H -1.30826 -3.41208 2.58601 
H -0.8097 -1.87548 3.31756 
H -2.44028 -2.05548 2.65408 
H -0.72389 0.05055 0.05679 
H -2.10888 -0.03738 1.1501 
H -0.48815 0.19727 1.80754 
*