!RI BP86 def2-SVP def2/J D3BJ TIGHTSCF TightOpt Grid5 FinalGrid6 freq
%maxcore 950
%pal nprocs 16
end
* xyz 0 1 
O 6.66646 -0.18883 0.44212 
C 5.46335 0.07466 0.49708 
C 4.84472 1.33378 -0.16189 
C 5.87281 2.46025 -0.29412 
C 5.70354 3.22025 1.01635 
C 4.19795 3.19511 1.23098 
N 3.74427 1.96647 0.58628 
C 2.44116 1.51779 0.52991 
O 2.17324 0.40696 0.04807 
N 4.55176 -0.82295 1.00197 
C 4.90281 -2.18829 1.39867 
C 4.44237 -3.05659 0.20003 
N 3.13882 -3.49222 0.22955 
C 2.48235 -4.15676 -0.90457 
C 0.94769 -4.00534 -0.74327 
N 0.56155 -2.82675 -0.13452 
C -0.81545 -2.53414 0.22826 
C -1.53684 -1.70371 -0.84797 
C -2.99003 -1.40666 -0.44074 
C -3.1555 -0.60851 0.84346 
N -2.16654 0.29905 1.10725 
C -2.04941 1.10461 2.32936 
C -0.92326 2.13687 2.10309 
N 0.17818 1.64481 1.43593 
C 1.32512 2.45841 1.04304 
C 0.93352 3.42146 -0.07532 
O -0.95391 3.27502 2.57248 
C -1.72113 0.21257 3.53932 
C -1.62531 0.95049 4.89008 
C -2.93516 1.64112 5.27089 
C -1.22385 -0.03735 5.9894 
O -4.13007 -0.75178 1.58285 
C -3.75402 -0.82366 -1.61179 
C -3.78973 0.69081 -1.77044 
C -4.43353 1.12046 -3.09022 
C -4.3559 2.63279 -3.32418 
C -3.23091 3.06633 -4.27114 
C -1.82286 2.79077 -3.74083 
C -0.75826 3.31637 -4.70792 
C 0.66998 3.21074 -4.16637 
C 1.11448 1.77568 -3.88211 
C 2.57895 1.72114 -3.47635 
O -4.29788 -1.57454 -2.43423 
O -0.80255 -0.48121 -1.07779 
O 0.12143 -4.79357 -1.20278 
C 2.90459 -5.62941 -0.99078 
C 2.71702 -6.21295 -2.38522 
O 5.14606 -3.21038 -0.8029 
C 4.32583 -2.54637 2.78312 
C 4.66945 -3.98804 3.17261 
C 4.865 -1.59733 3.86254 
H 4.47711 1.01789 -1.14487 
H 5.60019 3.1147 -1.13176 
H 6.90174 2.12511 -0.44946 
H 6.21023 2.68498 1.8283 
H 6.1041 4.23683 0.9752 
H 3.92569 3.19201 2.29024 
H 3.71923 4.04785 0.74115 
H 3.56382 -0.60783 0.86868 
H 5.9953 -2.28455 1.43975 
H 2.59758 -3.39406 1.08259 
H 2.77503 -3.61637 -1.81295 
H 1.28465 -2.14643 0.09598 
H -0.74915 -1.98752 1.17351 
H -1.34818 -3.47362 0.41065 
H -1.52482 -2.24997 -1.79936 
H -3.47211 -2.37346 -0.23076 
H -1.49768 0.47274 0.3521 
H -2.99995 1.63174 2.45514 
H 0.21618 0.65539 1.19891 
H 1.65765 3.00914 1.92714 
H 0.19364 4.15064 0.26998 
H 1.79497 3.97394 -0.46083 
H 0.48875 2.87828 -0.91666 
H -0.76979 -0.30549 3.35474 
H -2.47669 -0.57878 3.62556 
H -0.83832 1.71163 4.83187 
H -3.17912 2.44695 4.57237 
H -3.76977 0.93201 5.28014 
H -2.86213 2.08941 6.26772 
H -0.26704 -0.51488 5.7529 
H -1.11099 0.47496 6.9508 
H -1.97562 -0.82467 6.1112 
H -2.76707 1.06823 -1.7111 
H -4.36268 1.1098 -0.93619 
H -5.49127 0.82749 -3.05997 
H -3.99194 0.5774 -3.93449 
H -4.27841 3.17311 -2.37328 
H -5.30078 2.9514 -3.78308 
H -3.33954 4.14258 -4.45534 
H -3.36148 2.56981 -5.24076 
H -1.68758 1.71258 -3.61158 
H -1.69929 3.26363 -2.75951 
H -0.96 4.3715 -4.93059 
H -0.82869 2.77482 -5.65928 
H 0.75887 3.81258 -3.25412 
H 1.34801 3.65868 -4.90355 
H 0.96367 1.15341 -4.77155 
H 0.51321 1.34432 -3.07488 
H 2.87041 0.69145 -3.24688 
H 3.22347 2.08497 -4.28283 
H 2.76256 2.33405 -2.58861 
H 0.11848 -0.76239 -1.27311 
H 2.34174 -6.23036 -0.26596 
H 3.96337 -5.73707 -0.7254 
H 3.05403 -7.25437 -2.40436 
H 1.66928 -6.19546 -2.69684 
H 3.30368 -5.65601 -3.12291 
H 3.23457 -2.43749 2.77908 
H 4.24104 -4.70979 2.47104 
H 5.75355 -4.14351 3.19724 
H 4.27314 -4.22542 4.16587 
H 4.56362 -0.56271 3.66905 
H 4.47555 -1.8709 4.84917 
H 5.95886 -1.63025 3.90996 
*