!RI BP86 def2-SVP def2/J D3BJ TIGHTSCF TightOpt Grid5 FinalGrid6 freq
%maxcore 950
%pal nprocs 16
end
* xyz 0 1 
O 4.11032 -3.13612 2.95034 
C 3.97317 -2.00914 2.46938 
C 5.14036 -0.99294 2.36215 
C 6.15661 -1.17916 3.49135 
C 5.63804 -0.23457 4.56929 
C 5.15758 0.9669 3.77001 
N 4.75513 0.42321 2.47797 
C 4.23036 1.13963 1.42374 
O 3.88146 0.55597 0.38783 
N 2.81456 -1.63717 1.82701 
C 1.71599 -2.56064 1.54678 
C 1.97741 -3.03998 0.09895 
N 1.67674 -2.14151 -0.90157 
C 1.94687 -2.40089 -2.32136 
C 2.30213 -1.09174 -3.07311 
N 2.74891 -0.05807 -2.28062 
C 2.97513 1.28591 -2.77745 
C 1.72173 2.00214 -3.33142 
C 0.42742 1.66124 -2.57511 
C 0.50337 1.94556 -1.09166 
N 0.66722 3.26097 -0.73477 
C 0.55113 3.75307 0.6427 
C 1.69145 3.20712 1.53995 
N 2.90981 3.12951 0.8975 
C 4.12466 2.67347 1.56187 
C 5.35262 3.31887 0.93451 
O 1.58623 3.01258 2.7514 
C -0.85108 3.54828 1.24582 
C -1.84353 4.69316 0.94147 
C -2.07586 4.92232 -0.55126 
C -3.18149 4.41041 1.63148 
O 0.41869 1.0418 -0.25728 
C -0.78409 2.31016 -3.21522 
C -2.05335 1.48252 -3.34486 
C -2.5209 0.88108 -2.02261 
C -3.8793 0.19274 -2.16598 
C -4.32249 -0.42467 -0.83725 
C -5.7179 -1.05212 -0.89248 
C -5.7953 -2.2807 -1.8016 
C -7.176 -2.93692 -1.72951 
C -7.25701 -4.16263 -2.63919 
C -8.62714 -4.81794 -2.57022 
O -0.7422 3.46797 -3.65461 
O 1.98378 3.42057 -3.34185 
O 2.24621 -0.9771 -4.29925 
C 0.74097 -3.0618 -3.0125 
C 0.4556 -4.48044 -2.54224 
O 2.52826 -4.11809 -0.13993 
C 0.33887 -1.91435 1.79318 
C -0.8015 -2.86832 1.42605 
C 0.1889 -1.48812 3.25896 
H 5.60566 -1.15926 1.38292 
H 7.14628 -0.84147 3.15883 
H 6.25467 -2.20618 3.8531 
H 4.79575 -0.69755 5.09738 
H 6.39973 0.03051 5.30762 
H 4.31703 1.47504 4.25104 
H 5.96699 1.68542 3.60392 
H 2.8281 -0.76042 1.30854 
H 1.81502 -3.44363 2.1908 
H 1.23132 -1.25777 -0.6596 
H 2.82624 -3.05163 -2.39738 
H 2.9481 -0.23983 -1.29488 
H 3.74161 1.23883 -3.56014 
H 3.41082 1.86617 -1.95743 
H 1.59555 1.7077 -4.38124 
H 0.26288 0.58238 -2.68044 
H 0.8076 3.94512 -1.47718 
H 0.753 4.83103 0.57975 
H 2.90663 3.21736 -0.11589 
H 4.05949 2.96329 2.61302 
H 5.29883 4.41021 1.00843 
H 6.2702 2.98553 1.43007 
H 5.43827 3.06189 -0.12766 
H -0.77458 3.47464 2.33776 
H -1.28242 2.59633 0.91426 
H -1.43967 5.62091 1.36695 
H -1.16582 5.26812 -1.04944 
H -2.41655 4.00898 -1.04665 
H -2.83829 5.69284 -0.71035 
H -3.04582 4.29019 2.71151 
H -3.88306 5.23674 1.47512 
H -3.64274 3.49581 1.24299 
H -1.86798 0.69584 -4.08476 
H -2.83483 2.13605 -3.75062 
H -2.58219 1.66327 -1.25782 
H -1.78968 0.14677 -1.66596 
H -3.80694 -0.58228 -2.93691 
H -4.62771 0.92023 -2.5021 
H -4.32878 0.35562 -0.06582 
H -3.59304 -1.17855 -0.51635 
H -6.44688 -0.30109 -1.22025 
H -6.00121 -1.34329 0.12668 
H -5.02837 -3.00648 -1.50532 
H -5.58939 -1.99448 -2.83894 
H -7.94364 -2.21025 -2.02238 
H -7.38906 -3.23308 -0.69513 
H -6.49372 -4.89361 -2.34806 
H -7.04936 -3.87185 -3.67554 
H -8.66286 -5.69184 -3.2282 
H -8.85236 -5.15008 -1.55175 
H -9.41108 -4.12236 -2.88639 
H 1.20207 3.82768 -3.7815 
H 0.91199 -3.10234 -4.09529 
H -0.15626 -2.4473 -2.8635 
H -0.34474 -4.92047 -3.14616 
H 1.34178 -5.11454 -2.64376 
H 0.12707 -4.50126 -1.49996 
H 0.23114 -1.01197 1.18468 
H -0.78905 -3.11298 0.36 
H -0.73428 -3.80381 1.99168 
H -1.77383 -2.41221 1.64204 
H 0.93674 -0.73661 3.53243 
H -0.79751 -1.04557 3.43525 
H 0.30157 -2.34293 3.9345 
*