!RI BP86 def2-SVP def2/J D3BJ TIGHTSCF TightOpt Grid5 FinalGrid6 freq
%maxcore 950
%pal nprocs 16
end
* xyz 0 1 
O 7.54541 -1.32888 2.42351 
C 6.69338 -0.45415 2.2695 
C 6.60368 0.83179 3.13504 
C 7.36838 0.69201 4.45073 
C 6.33102 0.06933 5.37907 
C 5.03965 0.76652 4.97532 
N 5.22177 1.11907 3.57126 
C 4.28484 1.71682 2.75471 
O 4.5465 1.94499 1.56393 
N 5.80648 -0.47641 1.22061 
C 5.61478 -1.59155 0.29932 
C 5.06864 -1.10749 -1.06813 
N 4.13747 -0.08985 -1.02536 
C 3.50137 0.48847 -2.21621 
C 2.5375 -0.51386 -2.9042 
N 1.95747 -1.40439 -2.02551 
C 0.99256 -2.42212 -2.39903 
C -0.00759 -2.72005 -1.26557 
C -1.18899 -1.74402 -1.16258 
C -0.70287 -0.33002 -0.90861 
N -0.28135 -0.08305 0.37672 
C 0.12992 1.24922 0.83536 
C 1.0554 1.06068 2.05655 
N 1.92635 2.09822 2.28224 
C 2.91909 2.10951 3.35796 
C 3.00177 3.50098 3.97055 
O 1.00027 0.06829 2.78651 
C -1.11463 2.07719 1.20214 
C -0.88262 3.58354 1.43516 
C -0.34106 4.29061 0.19193 
C -2.19602 4.24373 1.86771 
O -0.70034 0.54748 -1.77278 
C -2.15976 -1.80041 -2.33956 
C -3.50552 -1.11424 -2.11928 
C -4.41311 -1.19419 -3.34546 
C -5.74993 -0.49346 -3.09453 
C -6.65509 -0.57013 -4.32592 
C -8.05024 0.01701 -4.09357 
C -8.0412 1.5266 -3.84281 
C -9.46456 2.07829 -3.73322 
C -9.45857 3.58542 -3.47833 
C -10.8709 4.13757 -3.36916 
O -1.90539 -2.3815 -3.39984 
O -0.46851 -4.08128 -1.37242 
O 2.20241 -0.4406 -4.08633 
C 4.48957 1.11497 -3.20693 
C 5.32995 2.21879 -2.57884 
O 5.3296 -1.70094 -2.1177 
C 4.68133 -2.69755 0.864 
C 3.46579 -2.15909 1.62788 
C 5.44233 -3.68209 1.75756 
H 6.98332 1.6633 2.53027 
H 7.64274 1.68512 4.82788 
H 8.27991 0.092 4.38293 
H 6.25373 -1.00729 5.18519 
H 6.56826 0.20773 6.4375 
H 4.16543 0.12192 5.10108 
H 4.89286 1.68773 5.54687 
H 5.30112 0.39191 1.05471 
H 6.60618 -2.01343 0.09013 
H 3.88562 0.32184 -0.13219 
H 2.85106 1.28451 -1.82832 
H 2.35008 -1.42561 -1.08806 
H 1.57533 -3.32404 -2.621 
H 0.50123 -2.13946 -3.33312 
H 0.55 -2.68873 -0.31971 
H -1.78704 -2.05718 -0.29449 
H -0.28395 -0.82685 1.07272 
H 0.69627 1.71237 0.02141 
H 2.01858 2.81609 1.56843 
H 2.61741 1.3818 4.1152 
H 2.0301 3.80468 4.37473 
H 3.7361 3.54186 4.78012 
H 3.29667 4.24619 3.22262 
H -1.56771 1.6471 2.10628 
H -1.86819 1.9648 0.4106 
H -0.16813 3.72198 2.25363 
H 0.65986 3.93572 -0.06911 
H -0.9954 4.13091 -0.67176 
H -0.26509 5.37012 0.36205 
H -2.58382 3.77773 2.77979 
H -2.04612 5.30837 2.07657 
H -2.96152 4.15569 1.08915 
H -3.32578 -0.06461 -1.8658 
H -3.9926 -1.59928 -1.26599 
H -4.58987 -2.24519 -3.60583 
H -3.91148 -0.73475 -4.2063 
H -5.56071 0.55326 -2.83178 
H -6.25297 -0.95887 -2.23841 
H -6.77189 -1.6209 -4.61916 
H -6.17675 -0.05856 -5.17 
H -8.52934 -0.49587 -3.2507 
H -8.66109 -0.19473 -4.98 
H -7.51375 2.03226 -4.66056 
H -7.49899 1.75076 -2.91749 
H -9.99373 1.56967 -2.91813 
H -10.0141 1.86485 -4.65816 
H -8.9337 4.09876 -4.29239 
H -8.9144 3.80451 -2.55227 
H -10.84305 5.21642 -3.18691 
H -11.43269 3.96339 -4.2924 
H -11.41318 3.66727 -2.54267 
H -0.98007 -4.2657 -0.55806 
H 3.93648 1.54166 -4.05283 
H 5.15311 0.35337 -3.63134 
H 5.97659 2.6754 -3.33492 
H 4.6941 3.00429 -2.15814 
H 5.97111 1.83008 -1.7817 
H 4.2992 -3.28214 0.01577 
H 2.8857 -1.45712 1.02546 
H 2.79594 -2.98059 1.90528 
H 3.7597 -1.65063 2.55212 
H 6.32611 -4.07616 1.24545 
H 5.76312 -3.21694 2.6942 
H 4.80413 -4.53407 2.01706 
*